num_atoms,user_label,total_energy,inferred_total_energy,stress_xx,stress_yy,stress_zz,stress_xy,stress_yz,stress_zx,inferred_stress_xx,inferred_stress_yy,inferred_stress_zz,inferred_stress_xy,inferred_stress_yz,inferred_stress_zx,cell_lattice_vectors_a,cell_lattice_vectors_b,cell_lattice_vectors_c
72,Bulk_crystal_40fs,-569.0891,-569.1399,3.40315,3.40315,3.44331,0.0,0.0,0.0,10.332028,10.336049,5.5786166,0.0029721898,0.0015520146,2.8155857e-05,[9.916636 0.       0.      ],[-4.958318  8.588059  0.      ],[ 0.        0.       10.912215]
72,Bulk_crystal_40fs,-566.17377,-566.31256,-9.70853,-5.92377,-36.214542,5.15658,-2.88328,-9.84174,-1.6971018,2.1837945,-30.000675,5.2365365,-2.9697928,-9.139544,[9.916636 0.       0.      ],[-4.958318  8.588059  0.      ],[ 0.        0.       10.912215]
72,Bulk_crystal_40fs,-565.3891,-565.65173,-4.65377,2.7354102,-9.816171,-3.47935,-11.68941,3.4530203,3.2773647,10.564536,-4.0810885,-3.4815094,-11.156371,3.5871632,[9.916636 0.       0.      ],[-4.958318  8.588059  0.      ],[ 0.        0.       10.912215]
72,Bulk_crystal_40fs,-566.9471,-567.2384,9.74582,10.605559,24.34924,1.2802601,-8.6302595,2.77514,16.316513,17.262432,27.946814,1.1126169,-8.123897,2.6866713,[9.916636 0.       0.      ],[-4.958318  8.588059  0.      ],[ 0.        0.       10.912215]
72,Bulk_crystal_40fs,-565.64874,-566.07117,34.45431,41.283123,35.03627,3.0791001,2.887,-0.55836004,40.32251,46.58178,37.808754,3.1372018,2.6759574,-0.44504976,[9.916636 0.       0.      ],[-4.958318  8.588059  0.      ],[ 0.        0.       10.912215]
72,Bulk_crystal_40fs,-565.2016,-565.6898,28.734192,40.582138,11.47589,-5.94192,8.41322,0.49080998,34.42352,46.67964,15.928073,-5.9734793,7.608594,0.0788177,[9.916636 0.       0.      ],[-4.958318  8.588059  0.      ],[ 0.        0.       10.912215]
72,Bulk_crystal_40fs,-566.0057,-566.39417,16.73924,19.58774,24.70266,-10.78228,12.578461,9.97625,23.380777,25.84932,28.359636,-10.432554,11.691621,8.970638,[9.916636 0.       0.      ],[-4.958318  8.588059  0.      ],[ 0.        0.       10.912215]
72,Bulk_crystal_40fs,-566.463,-566.734,-1.6566,-9.57983,9.81236,3.3652,13.278701,-5.11227,5.281612,-1.3621155,14.22208,3.1252184,12.721939,-4.853913,[9.916636 0.       0.      ],[-4.958318  8.588059  0.      ],[ 0.        0.       10.912215]
72,Bulk_crystal_40fs,-566.8591,-567.1002,15.183201,15.392561,-3.19948,-7.6744704,11.97247,-10.2803,21.71713,22.041298,1.5293341,-7.130888,11.907834,-9.233015,[9.916636 0.       0.      ],[-4.958318  8.588059  0.      ],[ 0.        0.       10.912215]
72,Bulk_crystal_40fs,-566.6684,-566.90173,-0.35722,-0.89769,-7.4638996,10.88442,-1.0613201,-6.7187004,7.1223316,6.6919165,-2.3590548,10.2601595,-0.4583015,-5.8574643,[9.916636 0.       0.      ],[-4.958318  8.588059  0.      ],[ 0.        0.       10.912215]
72,Bulk_crystal_40fs,-566.58093,-566.8559,-2.56629,8.16371,17.14496,2.61705,1.12609,-0.31827,5.1790624,15.437036,21.493496,2.393515,1.270419,-0.038866695,[9.916636 0.       0.      ],[-4.958318  8.588059  0.      ],[ 0.        0.       10.912215]
72,Bulk_crystal_40fs,-566.0585,-566.3952,15.28854,10.01528,3.3160203,-8.92569,3.69763,0.40814003,22.21504,16.884672,7.516491,-8.416515,3.723505,0.3881513,[9.916636 0.       0.      ],[-4.958318  8.588059  0.      ],[ 0.        0.       10.912215]
72,Bulk_crystal_40fs,-566.3167,-566.6944,36.13015,33.322823,21.05192,-3.5913103,-3.55753,2.13122,41.830994,39.030552,24.224422,-3.4802463,-3.3359523,1.4777328,[9.916636 0.       0.      ],[-4.958318  8.588059  0.      ],[ 0.        0.       10.912215]
72,Bulk_crystal_40fs,-566.219,-566.5644,7.6213202,12.989059,17.77642,-2.52857,-13.38331,1.93293,14.549098,20.510366,21.339336,-2.3829613,-13.235244,1.6471077,[9.916636 0.       0.      ],[-4.958318  8.588059  0.      ],[ 0.        0.       10.912215]
72,Bulk_crystal_40fs,-565.68085,-566.0244,16.039751,4.50802,19.59001,-4.52054,-13.83098,-4.4713902,23.028605,11.976825,23.56441,-4.4180017,-13.624928,-4.032552,[9.916636 0.       0.      ],[-4.958318  8.588059  0.      ],[ 0.        0.       10.912215]
72,Bulk_crystal_40fs,-566.2152,-566.5581,16.989922,11.50408,2.99265,3.9029999,-5.62535,-2.66395,23.390114,18.495207,7.3505154,4.0880866,-5.5102425,-2.0260084,[9.916636 0.       0.      ],[-4.958318  8.588059  0.      ],[ 0.        0.       10.912215]
72,Bulk_crystal_40fs,-566.49084,-566.8657,23.89634,23.32125,22.6105,-5.2140303,-3.83971,-2.70723,29.977224,29.696499,26.289335,-5.127916,-3.6647613,-2.4405944,[9.916636 0.       0.      ],[-4.958318  8.588059  0.      ],[ 0.        0.       10.912215]
72,Bulk_crystal_40fs,-566.0148,-566.38885,13.38331,15.811171,23.959162,-1.80743,-2.06228,2.7485201,20.068144,22.167543,27.711618,-1.8947321,-1.9787568,2.7650714,[9.916636 0.       0.      ],[-4.958318  8.588059  0.      ],[ 0.        0.       10.912215]
72,Bulk_crystal_40fs,-566.0207,-566.371,-10.80465,9.710481,0.31717,8.02878,8.51583,3.27619,-3.154914,16.884426,5.078952,7.862311,7.992188,3.2402334,[9.916636 0.       0.      ],[-4.958318  8.588059  0.      ],[ 0.        0.       10.912215]
72,Bulk_crystal_40fs,-566.5997,-566.85736,3.08695,24.778292,-1.9196199,5.584,12.06224,1.8461101,10.578054,31.163923,3.0380244,5.4314356,11.447525,2.1270363,[9.916636 0.       0.      ],[-4.958318  8.588059  0.      ],[ 0.        0.       10.912215]
72,Bulk_crystal_40fs,-566.66907,-566.9533,-0.0942,4.73186,-1.9477199,1.3720701,9.90594,-0.81285995,7.0533323,12.281215,3.1241379,1.3289154,9.728327,-0.7653013,[9.916636 0.       0.      ],[-4.958318  8.588059  0.      ],[ 0.        0.       10.912215]
72,Bulk_crystal_40fs,-565.8683,-566.22797,15.35087,24.98628,33.703682,-2.2898,2.11523,-0.18499,21.763996,31.509735,36.98065,-2.113166,2.4379392,0.12333499,[9.916636 0.       0.      ],[-4.958318  8.588059  0.      ],[ 0.        0.       10.912215]
72,Bulk_crystal_40fs,-566.4639,-566.7844,16.887371,-2.40733,-2.3645902,-0.51419,-5.61165,0.46458003,23.424494,5.1306057,2.162,-0.60275507,-4.9034114,0.4528316,[9.916636 0.       0.      ],[-4.958318  8.588059  0.      ],[ 0.        0.       10.912215]
72,Bulk_crystal_40fs,-566.47723,-566.77924,11.84177,16.407581,3.2671301,-0.78379005,0.93601996,3.06062,18.638117,22.663534,7.417706,-0.66510504,1.659301,2.586088,[9.916636 0.       0.      ],[-4.958318  8.588059  0.      ],[ 0.        0.       10.912215]
72,Bulk_crystal_40fs,-565.8627,-566.1804,-13.282121,7.0216002,-0.60595,1.7997799,-1.1761501,2.4990702,-5.438258,14.620232,4.92511,1.7141565,-1.0836396,2.1756065,[9.916636 0.       0.      ],[-4.958318  8.588059  0.      ],[ 0.        0.       10.912215]
72,Bulk_crystal_40fs,-566.159,-566.522,9.46426,21.2935,20.78816,-2.0824099,-3.96689,4.93932,16.403627,27.51527,24.451172,-2.0560086,-4.3269873,4.249492,[9.916636 0.       0.      ],[-4.958318  8.588059  0.      ],[ 0.        0.       10.912215]
72,Bulk_crystal_40fs,-566.4226,-566.77985,13.141251,26.349548,17.13559,-5.26421,6.63647,1.1356,19.844902,32.43561,20.47398,-4.7887673,5.834238,0.8720227,[9.916636 0.       0.      ],[-4.958318  8.588059  0.      ],[ 0.        0.       10.912215]
72,Bulk_crystal_40fs,-566.0427,-566.42285,25.32963,20.31662,18.263432,1.73163,8.18657,-3.01613,31.659475,26.354313,21.946548,1.666509,7.3039255,-2.8438969,[9.916636 0.       0.      ],[-4.958318  8.588059  0.      ],[ 0.        0.       10.912215]
72,Bulk_crystal_40fs,-566.22144,-566.5101,-2.8842099,6.32072,11.33755,-3.11955,4.7075,3.2020903,5.129683,13.489079,15.792982,-3.0353255,3.7541544,3.0110993,[9.916636 0.       0.      ],[-4.958318  8.588059  0.      ],[ 0.        0.       10.912215]
72,Bulk_crystal_40fs,-566.35767,-566.60815,-2.0384202,-1.20157,-4.26085,7.78855,-7.2791204,2.34438,5.529238,6.641537,0.9862853,7.3403893,-7.2310777,2.3967397,[9.916636 0.       0.      ],[-4.958318  8.588059  0.      ],[ 0.        0.       10.912215]
72,Bulk_crystal_40fs,-566.12866,-566.431,9.2472,9.1703205,7.43901,5.7386403,-5.27981,0.86638,16.575607,16.477058,12.323832,5.3442383,-4.6817503,0.94438446,[9.916636 0.       0.      ],[-4.958318  8.588059  0.      ],[ 0.        0.       10.912215]
72,Bulk_crystal_40fs,-565.837,-566.1921,14.00981,-2.20717,12.9948,4.37912,-7.37265,0.82544005,20.602365,4.9923744,17.064274,4.4894557,-6.517293,0.5609974,[9.916636 0.       0.      ],[-4.958318  8.588059  0.      ],[ 0.        0.       10.912215]
72,Bulk_crystal_40fs,-566.2075,-566.59973,21.980492,24.3991,24.9561,0.75448,3.0245,6.6338196,28.246412,30.549868,28.157553,0.7992104,3.2442265,6.065657,[9.916636 0.       0.      ],[-4.958318  8.588059  0.      ],[ 0.        0.       10.912215]
72,Bulk_crystal_40fs,-566.3089,-566.61615,0.87421,18.07449,4.0812902,0.67816,5.5356,5.08292,8.493004,24.741407,8.956963,0.60182565,5.299029,4.8045707,[9.916636 0.       0.      ],[-4.958318  8.588059  0.      ],[ 0.        0.       10.912215]
72,Bulk_crystal_40fs,-565.8925,-566.25916,5.87938,19.45205,14.474951,-6.3050404,10.77621,2.14187,12.95713,25.744925,18.299477,-6.1258016,10.738561,1.8587565,[9.916636 0.       0.      ],[-4.958318  8.588059  0.      ],[ 0.        0.       10.912215]
72,Bulk_crystal_40fs,-566.06006,-566.33997,-5.04651,1.41014,5.41447,1.69132,5.0005,-4.8706703,2.6266644,8.435031,9.850519,1.623489,5.351464,-4.7185755,[9.916636 0.       0.      ],[-4.958318  8.588059  0.      ],[ 0.        0.       10.912215]
72,Bulk_crystal_40fs,-566.77515,-567.067,16.59925,18.43564,15.35809,-0.11751,-5.35819,1.92241,22.69538,24.888617,19.44262,-0.243944,-4.8658543,1.636248,[9.916636 0.       0.      ],[-4.958318  8.588059  0.      ],[ 0.        0.       10.912215]
72,Bulk_crystal_40fs,-566.1176,-566.4672,14.136861,6.7361,5.9531302,-4.68464,-3.7864702,1.47582,21.130913,13.367879,10.053078,-4.2811584,-3.293953,1.2115515,[9.916636 0.       0.      ],[-4.958318  8.588059  0.      ],[ 0.        0.       10.912215]
72,Bulk_crystal_40fs,-566.0335,-566.3519,23.2706,-3.0145102,13.630501,5.4158297,-8.79926,-7.43296,29.698362,4.343845,17.793491,5.29029,-7.9767165,-7.426632,[9.916636 0.       0.      ],[-4.958318  8.588059  0.      ],[ 0.        0.       10.912215]
72,Bulk_crystal_40fs,-566.1651,-566.47656,-5.3727903,0.25704,0.87903,9.49795,-3.7259798,-5.85845,2.4987001,7.916578,5.4064574,9.126448,-3.3298178,-5.5317445,[9.916636 0.       0.      ],[-4.958318  8.588059  0.      ],[ 0.        0.       10.912215]
72,Bulk_crystal_40fs,-566.5371,-566.82385,17.15164,31.985449,22.51622,3.95682,-8.38002,-2.26648,23.963352,38.265587,25.924149,3.652945,-8.409572,-2.0101256,[9.916636 0.       0.      ],[-4.958318  8.588059  0.      ],[ 0.        0.       10.912215]
72,Bulk_crystal_40fs,-566.5978,-566.88477,3.2776,9.2322,4.35328,2.30741,-2.41423,-6.23821,10.615585,16.148775,8.824758,2.2262378,-2.4567523,-5.983951,[9.916636 0.       0.      ],[-4.958318  8.588059  0.      ],[ 0.        0.       10.912215]
72,Bulk_crystal_40fs,-566.07623,-566.372,14.078219,2.84003,11.05696,-7.70168,1.8288001,4.70557,20.942638,9.784666,15.463413,-7.3449054,1.9458581,4.0737514,[9.916636 0.       0.      ],[-4.958318  8.588059  0.      ],[ 0.        0.       10.912215]
72,Bulk_crystal_40fs,-566.6606,-566.8911,1.3116701,-4.5433803,-3.4839199,3.4117799,2.73132,10.14693,8.815889,3.8287418,1.5760523,3.333807,2.4966493,9.418339,[9.916636 0.       0.      ],[-4.958318  8.588059  0.      ],[ 0.        0.       10.912215]
72,Bulk_crystal_40fs,-566.97144,-567.2359,4.78699,21.92583,9.73462,2.64792,1.59147,7.9776,11.9597645,28.355574,13.733761,2.597126,1.1065104,7.589,[9.916636 0.       0.      ],[-4.958318  8.588059  0.      ],[ 0.        0.       10.912215]
72,Bulk_crystal_40fs,-565.9982,-566.33594,6.25437,7.2747903,6.3611097,-0.75013,0.47926998,-0.1254,13.575839,14.590738,10.787365,-0.85326225,0.5058765,0.19654474,[9.916636 0.       0.      ],[-4.958318  8.588059  0.      ],[ 0.        0.       10.912215]
72,Bulk_crystal_40fs,-565.89923,-566.25305,14.64103,10.36141,18.070261,2.02159,11.58463,0.1828,21.76561,17.06226,21.620222,2.001062,11.484515,0.014110811,[9.916636 0.       0.      ],[-4.958318  8.588059  0.      ],[ 0.        0.       10.912215]
72,Bulk_crystal_40fs,-566.7201,-566.98706,16.5863,-1.8439801,2.90695,9.81695,10.785851,-2.0796,22.940472,5.8912067,7.6182914,9.247492,10.721024,-1.6805367,[9.916636 0.       0.      ],[-4.958318  8.588059  0.      ],[ 0.        0.       10.912215]
72,Bulk_crystal_40fs,-566.4639,-566.76666,12.4378605,14.79439,14.309681,5.69178,5.89367,-4.25818,19.231201,21.38793,18.222866,5.585707,6.022226,-3.5153656,[9.916636 0.       0.      ],[-4.958318  8.588059  0.      ],[ 0.        0.       10.912215]
72,Bulk_crystal_40fs,-565.56445,-565.93896,7.5243897,21.95575,11.08224,0.67231,4.0216203,-6.11566,14.453123,28.89347,14.94172,0.6546044,4.111065,-5.9503374,[9.916636 0.       0.      ],[-4.958318  8.588059  0.      ],[ 0.        0.       10.912215]
72,Bulk_crystal_40fs,-566.21405,-566.4845,-7.4078197,-1.7775301,3.48221,-14.41312,9.3626795,4.3064003,0.23779821,6.111071,8.071851,-13.68061,8.865713,3.6814373,[9.916636 0.       0.      ],[-4.958318  8.588059  0.      ],[ 0.        0.       10.912215]
72,Bulk_crystal_40fs,-566.85095,-567.14,14.88127,15.47924,17.21095,-1.7592101,-1.0113,5.51486,21.585943,22.309313,20.726753,-1.8891422,-1.0314261,4.6311994,[9.916636 0.       0.      ],[-4.958318  8.588059  0.      ],[ 0.        0.       10.912215]
72,Bulk_crystal_40fs,-566.28815,-566.5547,2.46386,2.82652,-0.39681,5.13863,-8.73294,0.062740006,9.392989,10.020025,4.4608216,4.9687467,-8.410668,-0.12149704,[9.916636 0.       0.      ],[-4.958318  8.588059  0.      ],[ 0.        0.       10.912215]
72,Bulk_crystal_40fs,-566.0871,-566.35187,9.648231,3.26462,4.32956,6.587,-2.9960098,0.63979,16.856052,10.443181,8.842373,6.1780844,-3.031732,0.71839035,[9.916636 0.       0.      ],[-4.958318  8.588059  0.      ],[ 0.        0.       10.912215]
72,Bulk_crystal_40fs,-566.213,-566.5322,8.1029,5.4075203,9.98628,1.3342099,-9.1398,-1.8892101,14.996749,12.428732,14.067564,1.1419741,-8.878705,-1.9415869,[9.916636 0.       0.      ],[-4.958318  8.588059  0.      ],[ 0.        0.       10.912215]
72,Bulk_crystal_40fs,-566.14374,-566.50684,21.48063,23.46526,26.93912,4.81878,-19.322811,-4.69463,27.485052,29.633694,30.089804,4.1596255,-18.180485,-4.056037,[9.916636 0.       0.      ],[-4.958318  8.588059  0.      ],[ 0.        0.       10.912215]
72,Bulk_crystal_40fs,-566.12067,-566.4734,6.31256,3.3254402,-0.90521,6.05202,-13.0498,-5.72169,13.409494,10.3767395,3.38667,5.7154145,-12.393796,-4.6700897,[9.916636 0.       0.      ],[-4.958318  8.588059  0.      ],[ 0.        0.       10.912215]
72,Bulk_crystal_40fs,-566.3529,-566.6421,17.04038,4.3113403,10.4874,2.1417,1.7806901,-4.5288997,23.70584,11.985221,14.594267,2.3871102,2.1234076,-3.9126287,[9.916636 0.       0.      ],[-4.958318  8.588059  0.      ],[ 0.        0.       10.912215]
72,Bulk_crystal_40fs,-566.2377,-566.52954,4.27944,-6.27918,1.28075,3.93246,3.98605,5.5605702,11.34149,1.0659323,6.076476,3.876426,4.03819,4.983859,[9.916636 0.       0.      ],[-4.958318  8.588059  0.      ],[ 0.        0.       10.912215]
72,Bulk_crystal_40fs,-566.30756,-566.6196,12.50114,23.480371,15.197451,-2.4661899,11.17404,8.84665,18.736492,29.809069,18.772442,-2.2103128,10.648995,8.089058,[9.916636 0.       0.      ],[-4.958318  8.588059  0.      ],[ 0.        0.       10.912215]
72,Bulk_crystal_40fs,-566.58936,-566.8485,3.2714403,8.04819,6.07434,-8.52746,18.299849,11.804481,10.130342,15.092131,10.004042,-8.382812,17.41389,10.387268,[9.916636 0.       0.      ],[-4.958318  8.588059  0.      ],[ 0.        0.       10.912215]
72,Bulk_crystal_40fs,-566.07764,-566.3859,4.45523,9.6881,11.7208395,-4.6469197,16.764791,2.80729,12.254781,16.794203,15.890523,-4.2409945,16.204727,2.155804,[9.916636 0.       0.      ],[-4.958318  8.588059  0.      ],[ 0.        0.       10.912215]
72,Bulk_crystal_40fs,-565.77814,-566.08093,3.43264,7.27959,8.418461,7.4155602,10.28299,-13.61409,10.406744,14.022498,12.428628,7.1850214,10.305971,-12.200093,[9.916636 0.       0.      ],[-4.958318  8.588059  0.      ],[ 0.        0.       10.912215]
72,Bulk_crystal_40fs,-566.36633,-566.67566,14.56399,16.82397,10.074711,13.412959,3.29423,-16.54948,20.828499,22.830587,13.620847,12.82296,3.313988,-14.806416,[9.916636 0.       0.      ],[-4.958318  8.588059  0.      ],[ 0.        0.       10.912215]
72,Bulk_crystal_40fs,-565.9254,-566.2627,20.44807,3.4064,16.958069,7.66784,-2.08188,-8.526299,26.924992,11.165152,21.055794,7.5910172,-1.5779027,-7.3190427,[9.916636 0.       0.      ],[-4.958318  8.588059  0.      ],[ 0.        0.       10.912215]
72,Bulk_crystal_40fs,-565.9841,-566.2696,4.20513,1.29663,15.337141,-4.78729,-11.689031,0.62292004,11.824114,9.037244,19.477547,-4.618349,-10.822966,0.54059696,[9.916636 0.       0.      ],[-4.958318  8.588059  0.      ],[ 0.        0.       10.912215]
72,Bulk_crystal_40fs,-566.66833,-566.9167,2.26564,7.8653903,0.57132,-7.7971,-3.89329,3.22206,9.438804,14.8972645,5.3379726,-7.5745125,-3.8825955,2.4860322,[9.916636 0.       0.      ],[-4.958318  8.588059  0.      ],[ 0.        0.       10.912215]
72,Bulk_crystal_40fs,-566.3858,-566.65137,1.74832,-0.59000003,0.79594,-6.9372597,-6.25703,12.0625305,9.044066,6.87897,5.5954494,-6.7721524,-6.5297766,10.738153,[9.916636 0.       0.      ],[-4.958318  8.588059  0.      ],[ 0.        0.       10.912215]
72,Bulk_crystal_40fs,-565.86066,-566.1893,18.20248,10.53613,14.131961,1.1144301,-8.53403,16.49086,25.019323,17.499035,17.662796,1.1512527,-8.321997,15.305714,[9.916636 0.       0.      ],[-4.958318  8.588059  0.      ],[ 0.        0.       10.912215]
72,Bulk_crystal_40fs,-566.2092,-566.53876,3.3018103,4.43548,10.19699,5.33163,-1.7612101,4.10858,10.650248,11.815536,14.567826,5.2461653,-1.6770327,3.8584728,[9.916636 0.       0.      ],[-4.958318  8.588059  0.      ],[ 0.        0.       10.912215]
72,Bulk_crystal_40fs,-566.0576,-566.3807,20.19578,13.7295,12.13546,-3.17816,-3.33973,-8.22257,26.85661,20.494541,15.983866,-3.1731076,-3.6388457,-7.9987774,[9.916636 0.       0.      ],[-4.958318  8.588059  0.      ],[ 0.        0.       10.912215]
72,Bulk_crystal_40fs,-566.1382,-566.49243,3.09772,16.75167,0.0228,-4.13062,-1.47357,-2.56234,10.595527,23.606049,4.9046926,-4.055532,-1.3744334,-2.4485567,[9.916636 0.       0.      ],[-4.958318  8.588059  0.      ],[ 0.        0.       10.912215]
72,Bulk_crystal_40fs,-566.3836,-566.6958,17.92392,11.49784,20.81611,11.636021,-0.9984,-3.5815198,24.468534,18.76427,24.517365,11.147191,-0.6513309,-2.9799526,[9.916636 0.       0.      ],[-4.958318  8.588059  0.      ],[ 0.        0.       10.912215]
72,Bulk_crystal_40fs,-566.10284,-566.38745,-0.31793,-7.01667,0.4017,3.5432699,2.72769,1.39035,6.598378,0.73288095,5.155531,3.5197518,2.7584717,1.6917953,[9.916636 0.       0.      ],[-4.958318  8.588059  0.      ],[ 0.        0.       10.912215]
72,Bulk_crystal_40fs,-566.2091,-566.5261,16.91336,21.81754,15.238529,-0.79634994,2.7946599,-0.91511,23.569523,28.348639,18.956518,-0.7327274,2.8716817,-1.4814663,[9.916636 0.       0.      ],[-4.958318  8.588059  0.      ],[ 0.        0.       10.912215]
72,Bulk_crystal_40fs,-566.3689,-566.65717,9.82501,5.48555,8.16896,-8.10554,1.13096,4.94145,16.782673,12.404635,12.388397,-7.4714055,1.3993864,4.1892004,[9.916636 0.       0.      ],[-4.958318  8.588059  0.      ],[ 0.        0.       10.912215]
72,Bulk_crystal_40fs,-566.43256,-566.7079,1.3711799,10.57849,11.1265,-5.16113,8.65329,0.32959002,8.584775,17.552092,15.352187,-5.3005776,8.099793,0.17829707,[9.916636 0.       0.      ],[-4.958318  8.588059  0.      ],[ 0.        0.       10.912215]
72,Bulk_crystal_40fs,-566.3172,-566.5861,-11.33857,9.38076,-2.53113,4.1325,4.86649,-6.44421,-3.470214,16.78612,2.429368,3.964273,4.228579,-5.791098,[9.916636 0.       0.      ],[-4.958318  8.588059  0.      ],[ 0.        0.       10.912215]
72,Bulk_crystal_40fs,-566.1503,-566.5002,20.84053,13.678861,6.64751,7.66087,-4.1213703,-9.17928,27.010336,20.327425,10.6364,7.456032,-3.7396374,-8.284269,[9.916636 0.       0.      ],[-4.958318  8.588059  0.      ],[ 0.        0.       10.912215]
72,Bulk_crystal_40fs,-566.50275,-566.8564,19.52651,6.87872,11.78103,-1.4991,1.70633,-9.15263,26.326237,14.193457,15.796789,-1.721344,1.8893844,-8.766866,[9.916636 0.       0.      ],[-4.958318  8.588059  0.      ],[ 0.        0.       10.912215]
72,Bulk_crystal_40fs,-566.2751,-566.5982,18.720991,5.69168,17.96429,-0.72274,-2.06035,-4.11624,25.129492,13.00596,22.028568,-0.68937147,-1.5361277,-3.8764775,[9.916636 0.       0.      ],[-4.958318  8.588059  0.      ],[ 0.        0.       10.912215]
72,Bulk_crystal_40fs,-566.0623,-566.33093,-4.58826,-11.55015,-10.8384905,-0.48451,-11.01877,5.05047,3.3153114,-3.6730382,-5.3887696,-0.45265743,-10.457887,4.4877076,[9.916636 0.       0.      ],[-4.958318  8.588059  0.      ],[ 0.        0.       10.912215]
72,Bulk_crystal_40fs,-566.4013,-566.6779,4.8285,8.70642,6.10128,-0.20962,-5.45213,6.24874,12.041398,15.526344,10.375833,-0.1902629,-5.360665,5.903167,[9.916636 0.       0.      ],[-4.958318  8.588059  0.      ],[ 0.        0.       10.912215]
72,Bulk_crystal_40fs,-565.9434,-566.332,23.93006,19.563702,22.020851,9.70926,0.00419,-1.79946,30.14415,26.11505,25.734211,9.045537,-0.18732153,-1.5931009,[9.916636 0.       0.      ],[-4.958318  8.588059  0.      ],[ 0.        0.       10.912215]
72,Bulk_crystal_40fs,-565.3585,-565.81165,32.98775,28.04842,31.51196,-0.45062,-1.61407,6.8236504,38.70496,34.220215,34.304478,-0.17911236,-1.945525,6.8561244,[9.916636 0.       0.      ],[-4.958318  8.588059  0.      ],[ 0.        0.       10.912215]
72,Bulk_crystal_40fs,-566.17816,-566.55286,10.701961,34.163242,19.4209,-3.2731001,-2.48281,6.22226,17.73478,39.99354,23.138279,-3.0597875,-2.666121,5.705424,[9.916636 0.       0.      ],[-4.958318  8.588059  0.      ],[ 0.        0.       10.912215]
72,Bulk_crystal_40fs,-566.50214,-566.7448,-14.41434,0.92982006,-8.52575,-3.4046502,6.09136,-3.6426,-5.86273,8.665287,-3.4351642,-3.5463612,5.40915,-3.5581048,[9.916636 0.       0.      ],[-4.958318  8.588059  0.      ],[ 0.        0.       10.912215]
72,Bulk_crystal_40fs,-566.2957,-566.5385,5.3421702,-8.69898,-0.93109006,-2.53178,3.8854501,-4.81992,12.674667,-0.21832585,4.5482273,-2.5895655,4.0571117,-4.7591586,[9.916636 0.       0.      ],[-4.958318  8.588059  0.      ],[ 0.        0.       10.912215]
72,Bulk_crystal_40fs,-566.378,-566.6959,18.30359,-1.8797301,4.13485,6.56085,-1.55612,-5.2571,25.033108,5.595343,8.279267,6.3077173,-0.49965346,-4.9238067,[9.916636 0.       0.      ],[-4.958318  8.588059  0.      ],[ 0.        0.       10.912215]
72,Bulk_crystal_40fs,-566.85077,-567.1581,32.67362,16.50983,29.35236,7.0272703,-1.27065,-9.06116,38.69557,23.215303,32.939026,6.870954,-0.6992197,-8.545674,[9.916636 0.       0.      ],[-4.958318  8.588059  0.      ],[ 0.        0.       10.912215]
72,Bulk_crystal_40fs,-566.45715,-566.74713,-3.6484802,-0.57851,-3.2213702,-0.66839,2.60745,-7.2328005,3.4645624,6.8912024,1.3436748,-0.7841219,2.348959,-6.5102186,[9.916636 0.       0.      ],[-4.958318  8.588059  0.      ],[ 0.        0.       10.912215]
72,Bulk_crystal_40fs,-565.5924,-565.8927,-7.46618,10.28191,1.27621,-3.8477201,6.0159903,-1.51059,-0.07431503,17.140392,6.6307282,-3.6886036,5.128181,-1.5686735,[9.916636 0.       0.      ],[-4.958318  8.588059  0.      ],[ 0.        0.       10.912215]
72,Bulk_crystal_40fs,-566.0823,-566.42004,2.44373,8.19302,6.11981,-0.076340005,8.986791,-1.35215,9.852922,15.452579,10.678324,-0.23299794,7.7624097,-1.1166235,[9.916636 0.       0.      ],[-4.958318  8.588059  0.      ],[ 0.        0.       10.912215]
72,Bulk_crystal_40fs,-566.1319,-566.56793,39.36037,34.32345,32.81039,0.34466,3.45654,5.56036,45.16352,40.315063,35.43093,0.3714633,3.0066073,4.911439,[9.916636 0.       0.      ],[-4.958318  8.588059  0.      ],[ 0.        0.       10.912215]
72,Bulk_crystal_40fs,-565.5119,-565.94464,36.64977,10.324651,25.41462,-1.37234,-15.72743,7.28082,42.470688,17.275326,28.63914,-1.1737505,-14.785211,6.8717837,[9.916636 0.       0.      ],[-4.958318  8.588059  0.      ],[ 0.        0.       10.912215]
72,Bulk_crystal_40fs,-566.14246,-566.5164,24.55183,9.37102,12.12618,0.31593,-21.07547,-1.22406,30.727057,16.209772,16.263817,0.2921049,-19.023794,-0.977818,[9.916636 0.       0.      ],[-4.958318  8.588059  0.      ],[ 0.        0.       10.912215]
72,Bulk_crystal_40fs,-566.50775,-566.74146,4.8240304,-2.51787,3.11635,-4.44642,-15.11069,2.9227102,12.060101,5.6075296,7.8284135,-4.323025,-13.741833,2.997417,[9.916636 0.       0.      ],[-4.958318  8.588059  0.      ],[ 0.        0.       10.912215]
72,Bulk_crystal_40fs,-566.38074,-566.63324,-3.3575902,-6.6188903,-2.84294,6.20684,-3.5859601,7.2894006,4.749052,1.3376597,1.8647958,6.043902,-3.5266721,7.267457,[9.916636 0.       0.      ],[-4.958318  8.588059  0.      ],[ 0.        0.       10.912215]
72,Bulk_crystal_40fs,-566.7626,-567.0504,3.56414,14.0599,9.17216,3.2982903,6.68788,1.98187,10.8013315,20.55924,12.909245,3.455919,5.9913344,1.8404677,[9.916636 0.       0.      ],[-4.958318  8.588059  0.      ],[ 0.        0.       10.912215]
72,Bulk_crystal_40fs,-566.3627,-566.6861,7.39441,12.593791,11.64102,2.0503101,16.43711,1.58377,14.264975,19.267122,15.578107,2.0972679,14.924735,1.0406922,[9.916636 0.       0.      ],[-4.958318  8.588059  0.      ],[ 0.        0.       10.912215]
72,Bulk_crystal_40fs,-566.24097,-566.59753,17.70727,21.09581,18.124481,-10.25915,7.50916,-0.62865,23.641039,27.607906,21.887577,-9.694677,6.5317006,-0.6737816,[9.916636 0.       0.      ],[-4.958318  8.588059  0.      ],[ 0.        0.       10.912215]
72,Bulk_crystal_40fs,-566.36896,-566.6636,-5.84922,5.54213,-0.06533,-3.5187998,-1.27774,-4.34609,1.8735429,12.982101,4.5065928,-3.2059138,-1.2774013,-4.2162595,[9.916636 0.       0.      ],[-4.958318  8.588059  0.      ],[ 0.        0.       10.912215]
72,Bulk_crystal_40fs,-565.82776,-566.15454,12.34898,1.21375,6.91507,4.97336,-13.62131,-14.7294,19.632631,8.911123,11.720799,4.7992363,-12.483951,-13.999549,[9.916636 0.       0.      ],[-4.958318  8.588059  0.      ],[ 0.        0.       10.912215]
72,Bulk_crystal_40fs,-566.05664,-566.3944,25.76206,-6.0561,8.47803,6.17561,-13.9178705,-9.73109,31.561415,1.4610941,12.433421,5.5273314,-12.695557,-9.140897,[9.916636 0.       0.      ],[-4.958318  8.588059  0.      ],[ 0.        0.       10.912215]
72,Bulk_crystal_40fs,-566.1046,-566.4466,28.69819,-0.01892,15.661151,10.23046,-13.38966,-3.81818,34.38549,7.2207513,19.403828,9.365679,-12.527956,-3.9485445,[9.916636 0.       0.      ],[-4.958318  8.588059  0.      ],[ 0.        0.       10.912215]
72,Bulk_crystal_40fs,-566.2585,-566.58936,9.20321,11.2299595,14.444941,-0.08537,1.61831,-0.37314,16.149199,18.216568,18.35411,0.036859512,1.2511008,-0.55041206,[9.916636 0.       0.      ],[-4.958318  8.588059  0.      ],[ 0.        0.       10.912215]
72,Bulk_crystal_40fs,-566.20044,-566.50555,-3.3729303,18.16135,6.04602,2.76579,12.156321,-3.5337203,4.330236,24.95686,10.459649,2.3940723,10.860626,-3.540322,[9.916636 0.       0.      ],[-4.958318  8.588059  0.      ],[ 0.        0.       10.912215]
72,Bulk_crystal_40fs,-566.44604,-566.7061,-14.672311,5.88695,-9.5930395,-5.02527,5.84897,2.0552,-6.9197235,12.985109,-4.3374786,-4.677347,5.3879485,1.9990475,[9.916636 0.       0.      ],[-4.958318  8.588059  0.      ],[ 0.        0.       10.912215]
72,Bulk_crystal_40fs,-566.55145,-566.8458,15.97244,6.2790203,14.41589,3.3538098,-2.16842,1.70343,22.616938,13.674568,17.84294,3.0886772,-1.7234414,1.8219116,[9.916636 0.       0.      ],[-4.958318  8.588059  0.      ],[ 0.        0.       10.912215]
72,Bulk_crystal_40fs,-566.34235,-566.6487,11.786759,-7.21534,1.95218,2.07969,0.42613998,1.42417,18.87497,0.32986334,6.500673,2.043616,0.65211713,1.2736403,[9.916636 0.       0.      ],[-4.958318  8.588059  0.      ],[ 0.        0.       10.912215]
72,Bulk_crystal_40fs,-566.12146,-566.478,32.80583,14.34923,15.969301,-4.1258397,-0.77787,7.7414603,38.742348,20.601347,19.6921,-3.8843544,-0.23448363,6.9898534,[9.916636 0.       0.      ],[-4.958318  8.588059  0.      ],[ 0.        0.       10.912215]
72,Bulk_crystal_40fs,-566.18195,-566.5056,-6.7641397,2.30231,1.76273,0.79391,1.63652,3.76934,1.2373254,9.129004,6.2461824,0.67755795,1.7774551,2.9981985,[9.916636 0.       0.      ],[-4.958318  8.588059  0.      ],[ 0.        0.       10.912215]
72,Bulk_crystal_40fs,-566.1972,-566.50757,8.6027,13.30364,8.887191,5.62339,5.11249,-0.2646,15.937836,20.091465,13.245022,5.5108323,4.934704,-0.25812006,[9.916636 0.       0.      ],[-4.958318  8.588059  0.      ],[ 0.        0.       10.912215]
72,Bulk_crystal_40fs,-565.936,-566.2433,-3.59865,-0.64229,-5.69756,8.414571,10.27066,-6.7231297,3.6520278,6.7504725,-0.82168776,7.9881873,9.793257,-6.3521256,[9.916636 0.       0.      ],[-4.958318  8.588059  0.      ],[ 0.        0.       10.912215]
72,Bulk_crystal_40fs,-566.3858,-566.7525,32.01614,22.36112,26.96544,1.21988,-4.38559,-0.46024004,37.514194,28.533766,29.972742,1.1401316,-3.8401375,-0.27552214,[9.916636 0.       0.      ],[-4.958318  8.588059  0.      ],[ 0.        0.       10.912215]
72,Bulk_crystal_40fs,-566.3207,-566.6381,11.56511,9.6608,9.96613,1.5327001,-6.43833,-5.26091,18.21275,17.018267,14.246699,1.3799073,-6.196588,-5.311172,[9.916636 0.       0.      ],[-4.958318  8.588059  0.      ],[ 0.        0.       10.912215]
72,Bulk_crystal_40fs,-566.0989,-566.3852,-0.60488,-1.4664899,-4.1174498,-7.96829,-1.06413,-0.45965,6.7992806,6.1203995,0.41010714,-7.775557,-1.2873249,-0.6584574,[9.916636 0.       0.      ],[-4.958318  8.588059  0.      ],[ 0.        0.       10.912215]
72,Bulk_crystal_40fs,-566.5679,-566.85974,5.90076,6.7210197,2.21931,0.60029,-10.33665,-2.6909199,13.099499,14.35943,6.8704,0.5650572,-10.006692,-2.844771,[9.916636 0.       0.      ],[-4.958318  8.588059  0.      ],[ 0.        0.       10.912215]
72,Bulk_crystal_40fs,-566.3166,-566.6455,12.65444,0.57778,14.4535,6.4232297,-16.12698,-4.0550103,19.920256,8.34377,18.837664,6.0296893,-15.366166,-3.6980164,[9.916636 0.       0.      ],[-4.958318  8.588059  0.      ],[ 0.        0.       10.912215]
72,Bulk_crystal_40fs,-566.06573,-566.40735,22.94749,11.05552,20.00358,1.5224,-3.0452,-4.6829,29.69899,17.740833,23.936232,1.4220461,-2.6975756,-4.1057363,[9.916636 0.       0.      ],[-4.958318  8.588059  0.      ],[ 0.        0.       10.912215]
72,Bulk_crystal_40fs,-566.5317,-566.81024,6.5866704,-5.24826,-1.43546,9.72517,2.74086,-8.21267,13.294636,2.1443415,2.8848994,9.178271,2.6749465,-7.5316057,[9.916636 0.       0.      ],[-4.958318  8.588059  0.      ],[ 0.        0.       10.912215]
72,Bulk_crystal_40fs,-565.9335,-566.28143,11.56701,28.398901,17.48188,1.51555,-0.67247,-1.36489,19.222803,35.153557,21.624128,1.438783,-0.33204675,-1.1939003,[9.916636 0.       0.      ],[-4.958318  8.588059  0.      ],[ 0.        0.       10.912215]
72,Bulk_crystal_40fs,-565.9899,-566.34216,5.31758,13.878591,13.65238,-0.47225,6.4522305,4.33533,12.546341,21.018915,17.483868,-0.3262378,6.1658597,3.8486714,[9.916636 0.       0.      ],[-4.958318  8.588059  0.      ],[ 0.        0.       10.912215]
72,Bulk_crystal_40fs,-566.65704,-566.9358,9.16272,11.89645,8.25768,-0.76345,15.677441,7.61983,16.512972,19.270746,12.616936,-0.7823348,14.450926,7.142126,[9.916636 0.       0.      ],[-4.958318  8.588059  0.      ],[ 0.        0.       10.912215]
72,Bulk_crystal_40fs,-565.87915,-566.1837,1.1479,-8.90419,-2.6344001,-5.77071,0.95857996,2.63239,8.759401,-0.7104319,2.126679,-5.582852,1.0744691,2.3343036,[9.916636 0.       0.      ],[-4.958318  8.588059  0.      ],[ 0.        0.       10.912215]
72,Bulk_crystal_40fs,-565.8779,-566.2425,20.276941,18.03853,20.64508,2.0519502,0.66042,1.45805,27.06883,24.57086,24.052053,1.7372044,0.8197519,1.4430723,[9.916636 0.       0.      ],[-4.958318  8.588059  0.      ],[ 0.        0.       10.912215]
72,Bulk_crystal_40fs,-566.7829,-567.09534,16.05765,22.67715,23.850922,0.46348,2.7873502,-0.58341,22.859787,28.605747,27.040289,0.38055375,2.5441399,-0.7482026,[9.916636 0.       0.      ],[-4.958318  8.588059  0.      ],[ 0.        0.       10.912215]
72,Bulk_crystal_40fs,-566.6363,-566.8745,8.90644,-3.70543,0.35577,0.10728001,-2.07952,-3.3894103,16.665077,4.3239064,5.1635375,0.15746379,-1.730581,-2.962827,[9.916636 0.       0.      ],[-4.958318  8.588059  0.      ],[ 0.        0.       10.912215]
72,Bulk_crystal_40fs,-566.2778,-566.49884,-10.31846,-20.33969,-16.021309,8.47222,-7.2446704,-2.07167,-1.6474522,-11.637898,-9.857648,8.015333,-6.2903366,-1.9086341,[9.916636 0.       0.      ],[-4.958318  8.588059  0.      ],[ 0.        0.       10.912215]
72,Bulk_crystal_40fs,-566.7728,-567.0573,10.86687,11.12811,11.33136,-0.48261002,-1.309,-3.20461,17.52268,18.590338,15.662573,-0.6598496,-1.2333602,-2.7136035,[9.916636 0.       0.      ],[-4.958318  8.588059  0.      ],[ 0.        0.       10.912215]
72,Bulk_crystal_40fs,-566.2972,-566.6799,29.52485,30.024029,27.0313,0.34395,0.9936,-2.43958,35.45802,36.007866,29.75505,0.42084497,0.6066605,-2.3166754,[9.916636 0.       0.      ],[-4.958318  8.588059  0.      ],[ 0.        0.       10.912215]
72,Bulk_crystal_40fs,-566.1737,-566.48627,2.2838302,5.68131,5.99191,0.20704001,-3.14902,-3.5326998,9.518446,13.088081,10.618621,0.076382115,-3.577039,-3.337606,[9.916636 0.       0.      ],[-4.958318  8.588059  0.      ],[ 0.        0.       10.912215]
72,Bulk_crystal_40fs,-566.2613,-566.4958,-2.9037402,-7.74267,1.5583299,-4.47252,6.48914,0.98207,4.8108234,0.15573066,6.3147883,-4.647997,6.123919,0.9681324,[9.916636 0.       0.      ],[-4.958318  8.588059  0.      ],[ 0.        0.       10.912215]
72,Bulk_crystal_40fs,-565.96515,-566.2482,-0.12509,-13.08625,-4.92467,6.9746404,1.19402,-1.1394801,7.740278,-4.370682,0.3759222,6.6987095,0.9347759,-0.791541,[9.916636 0.       0.      ],[-4.958318  8.588059  0.      ],[ 0.        0.       10.912215]
72,Bulk_crystal_40fs,-566.0975,-566.4988,41.01062,37.40332,30.725441,-1.9778501,-9.42721,6.14423,46.50195,43.206894,33.484493,-1.5558863,-8.474458,5.871087,[9.916636 0.       0.      ],[-4.958318  8.588059  0.      ],[ 0.        0.       10.912215]
72,Bulk_crystal_40fs,-565.8992,-566.266,18.137491,1.46335,15.93595,-4.01872,-7.7123103,4.37259,24.564562,9.045293,19.708061,-4.0387483,-6.641394,4.105226,[9.916636 0.       0.      ],[-4.958318  8.588059  0.      ],[ 0.        0.       10.912215]
72,Bulk_crystal_40fs,-565.9845,-566.284,5.68723,5.41478,5.0977,-3.14093,6.14163,-2.13766,12.9357,12.672703,9.849765,-2.8214166,6.1075397,-2.110819,[9.916636 0.       0.      ],[-4.958318  8.588059  0.      ],[ 0.        0.       10.912215]
72,Bulk_crystal_40fs,-566.65497,-566.88776,-13.0449505,-1.02318,-11.472671,1.04344,9.369989,-0.23696,-5.287569,6.442553,-5.904421,0.99890196,9.041998,0.028726168,[9.916636 0.       0.      ],[-4.958318  8.588059  0.      ],[ 0.        0.       10.912215]
72,Bulk_crystal_40fs,-566.5981,-566.87146,11.06386,16.67575,11.3423,1.61687,4.53485,-0.23877,17.751186,22.954857,15.569932,1.5044086,4.3262916,-0.084755294,[9.916636 0.       0.      ],[-4.958318  8.588059  0.      ],[ 0.        0.       10.912215]
72,Bulk_crystal_40fs,-566.3645,-566.68884,10.0516205,14.2166605,13.36146,0.56791997,9.55791,-11.07626,17.092512,20.456146,17.312386,0.6718896,9.013929,-10.350987,[9.916636 0.       0.      ],[-4.958318  8.588059  0.      ],[ 0.        0.       10.912215]
72,Bulk_crystal_40fs,-566.29315,-566.5938,13.95954,4.04547,9.39673,0.45338,6.43636,-9.44233,20.516422,11.505481,13.651053,0.5318818,6.2996163,-8.606864,[9.916636 0.       0.      ],[-4.958318  8.588059  0.      ],[ 0.        0.       10.912215]
72,Bulk_crystal_40fs,-566.295,-566.58563,7.4326105,-1.77906,5.08991,-0.81038004,-2.90728,-3.0923,14.595574,5.7377114,9.379828,-0.90429693,-2.440566,-2.708558,[9.916636 0.       0.      ],[-4.958318  8.588059  0.      ],[ 0.        0.       10.912215]
72,Bulk_crystal_40fs,-566.8652,-567.1266,11.19858,11.08015,8.14212,0.21636,-6.4908905,0.30573002,17.715347,18.201965,12.145786,0.21712935,-6.446165,0.21454805,[9.916636 0.       0.      ],[-4.958318  8.588059  0.      ],[ 0.        0.       10.912215]
72,Bulk_crystal_40fs,-566.5015,-566.7834,13.422481,2.39211,2.1229699,-0.51499003,0.27342,4.75781,20.431725,9.878781,6.8783126,-0.64201355,0.29021907,4.8065047,[9.916636 0.       0.      ],[-4.958318  8.588059  0.      ],[ 0.        0.       10.912215]
72,Bulk_crystal_40fs,-565.6092,-565.9413,10.178679,17.06747,9.714971,0.3109,-0.124910004,5.58885,17.658546,23.999395,14.648845,0.16415194,0.13761966,5.0481405,[9.916636 0.       0.      ],[-4.958318  8.588059  0.      ],[ 0.        0.       10.912215]
72,Bulk_crystal_40fs,-566.7004,-566.9774,2.42614,4.97345,9.71626,-4.81093,2.23902,6.5160503,9.761719,12.165837,13.835756,-4.6649556,2.3099656,5.9542513,[9.916636 0.       0.      ],[-4.958318  8.588059  0.      ],[ 0.        0.       10.912215]
72,Bulk_crystal_40fs,-566.6242,-566.9149,7.6039,22.70752,16.35852,-0.015360001,14.17544,0.73336,14.230783,29.590479,20.201696,-0.0896799,13.608529,0.55732894,[9.916636 0.       0.      ],[-4.958318  8.588059  0.      ],[ 0.        0.       10.912215]
72,Bulk_crystal_40fs,-566.3595,-566.6181,2.1305,-8.84845,-5.4083104,6.9128304,10.26883,-2.48284,9.078823,-1.7584513,-0.5772058,6.541497,10.311717,-2.4373515,[9.916636 0.       0.      ],[-4.958318  8.588059  0.      ],[ 0.        0.       10.912215]
72,Bulk_crystal_40fs,-566.78186,-567.03204,17.630861,2.5787902,14.89076,1.3290501,5.62957,-3.24738,24.412088,9.917314,18.624203,1.4007567,5.5589986,-2.7728324,[9.916636 0.       0.      ],[-4.958318  8.588059  0.      ],[ 0.        0.       10.912215]
72,Bulk_crystal_40fs,-566.40436,-566.6872,-0.69607997,9.254459,7.46243,2.4938102,9.58979,-9.137481,6.611556,16.1643,11.5270605,2.2983108,8.888785,-8.635899,[9.916636 0.       0.      ],[-4.958318  8.588059  0.      ],[ 0.        0.       10.912215]
72,Bulk_crystal_40fs,-566.2565,-566.56836,9.92774,19.22443,12.17548,-3.41592,4.78129,-7.3858004,16.765385,26.323488,16.387419,-3.1995618,4.229033,-7.2637243,[9.916636 0.       0.      ],[-4.958318  8.588059  0.      ],[ 0.        0.       10.912215]
72,Bulk_crystal_40fs,-566.4438,-566.733,-13.31891,6.1602798,-2.40935,3.6962001,-0.84565,3.7728302,-5.019146,13.269903,2.4336557,3.372794,-0.861268,3.5735984,[9.916636 0.       0.      ],[-4.958318  8.588059  0.      ],[ 0.        0.       10.912215]
72,Bulk_crystal_40fs,-566.1137,-566.4471,20.65576,4.7562304,10.89187,-5.40923,-7.45217,10.44229,27.358597,12.205411,15.234001,-5.4511857,-6.764191,9.920782,[9.916636 0.       0.      ],[-4.958318  8.588059  0.      ],[ 0.        0.       10.912215]
72,Bulk_crystal_40fs,-566.23303,-566.615,32.54363,5.2776904,22.90275,-1.0318301,-17.21311,-3.1831,38.36935,12.254472,26.471888,-0.9783679,-15.656492,-2.8538053,[9.916636 0.       0.      ],[-4.958318  8.588059  0.      ],[ 0.        0.       10.912215]
72,Bulk_crystal_40fs,-566.22174,-566.57477,25.792898,11.84459,18.88647,0.96817,-15.39863,0.26614,31.484749,18.381048,22.800596,0.763697,-14.334964,0.5433294,[9.916636 0.       0.      ],[-4.958318  8.588059  0.      ],[ 0.        0.       10.912215]
72,Bulk_crystal_40fs,-566.6235,-566.80884,-9.2444,-9.608749,-9.80321,6.9029703,-5.8744698,2.54131,-1.4056691,-1.8827399,-4.4800715,6.5039673,-5.735151,2.9567893,[9.916636 0.       0.      ],[-4.958318  8.588059  0.      ],[ 0.        0.       10.912215]
72,Bulk_crystal_40fs,-566.88025,-567.0831,-9.54802,3.0416799,-12.63435,6.09632,5.1596503,-5.8477902,-1.8841147,10.206264,-7.3316107,5.9381776,4.209987,-5.1562295,[9.916636 0.       0.      ],[-4.958318  8.588059  0.      ],[ 0.        0.       10.912215]
72,Bulk_crystal_40fs,-566.27563,-566.6159,10.84729,24.16763,17.71042,-5.16352,0.63513,-4.03441,17.858713,30.724794,21.58075,-4.8543377,0.07505561,-3.8634431,[9.916636 0.       0.      ],[-4.958318  8.588059  0.      ],[ 0.        0.       10.912215]
72,Bulk_crystal_40fs,-566.6138,-566.9549,19.28602,17.78795,22.53462,-5.69551,-2.7952,5.6697,26.11389,24.341124,25.810844,-5.6584787,-2.7516057,4.7001553,[9.916636 0.       0.      ],[-4.958318  8.588059  0.      ],[ 0.        0.       10.912215]
72,Bulk_crystal_40fs,-566.32153,-566.63947,24.47019,0.45985,6.8764305,-3.2278402,0.93595004,8.733669,31.064636,8.213688,11.637306,-3.2485967,1.231302,8.02414,[9.916636 0.       0.      ],[-4.958318  8.588059  0.      ],[ 0.        0.       10.912215]
72,Bulk_crystal_40fs,-565.2132,-565.58813,2.40915,-0.18212001,-5.18187,-3.0915902,-0.10903,-0.33693,9.984733,7.2887373,0.19228518,-3.1560676,0.22057627,-0.25383157,[9.916636 0.       0.      ],[-4.958318  8.588059  0.      ],[ 0.        0.       10.912215]
72,Bulk_crystal_40fs,-565.5531,-565.95105,19.49111,5.2969203,13.313471,-3.52199,-5.13536,0.35458001,26.291285,12.485159,17.666334,-3.4064903,-4.2840166,0.49510306,[9.916636 0.       0.      ],[-4.958318  8.588059  0.      ],[ 0.        0.       10.912215]
72,Bulk_crystal_40fs,-566.3454,-566.6835,7.94521,6.6230397,15.518479,-3.89496,6.61374,-6.4250197,15.256943,13.799688,19.548296,-3.987903,6.3547926,-5.875833,[9.916636 0.       0.      ],[-4.958318  8.588059  0.      ],[ 0.        0.       10.912215]
72,Bulk_crystal_40fs,-566.23114,-566.5368,26.40913,9.49407,8.21344,-9.18291,11.02392,-1.81622,32.449966,16.805069,12.706643,-8.953309,10.612418,-1.4760345,[9.916636 0.       0.      ],[-4.958318  8.588059  0.      ],[ 0.        0.       10.912215]
72,Bulk_crystal_40fs,-566.603,-566.8317,-5.9197197,-4.60241,-7.37604,5.53964,1.3342099,-1.94751,1.9833298,2.383648,-2.6935873,5.5956426,1.4626076,-1.5390189,[9.916636 0.       0.      ],[-4.958318  8.588059  0.      ],[ 0.        0.       10.912215]
72,Bulk_crystal_40fs,-566.875,-567.1272,5.3509398,13.947141,14.474151,3.65831,-5.94108,-8.93245,12.895566,21.001173,18.52173,3.3387012,-6.2101526,-8.125443,[9.916636 0.       0.      ],[-4.958318  8.588059  0.      ],[ 0.        0.       10.912215]
72,Bulk_crystal_40fs,-566.58014,-566.8514,-0.19651,4.12582,1.58426,0.58875,-4.87646,-6.19986,7.2718596,11.540843,6.0571847,0.50099504,-5.4052553,-5.3480372,[9.916636 0.       0.      ],[-4.958318  8.588059  0.      ],[ 0.        0.       10.912215]
72,Bulk_crystal_40fs,-566.1026,-566.41486,15.41337,13.515691,10.57378,5.58767,-20.79223,3.85519,22.534374,20.823673,15.021655,5.46242,-19.880379,4.004345,[9.916636 0.       0.      ],[-4.958318  8.588059  0.      ],[ 0.        0.       10.912215]
72,Bulk_crystal_40fs,-565.6966,-566.0771,15.14119,-3.2998,7.4184,-9.86649,-22.4988,14.548221,22.324627,4.4965453,11.649323,-9.221115,-21.456345,14.166179,[9.916636 0.       0.      ],[-4.958318  8.588059  0.      ],[ 0.        0.       10.912215]
72,Bulk_crystal_40fs,-565.86816,-566.2623,34.75233,6.5707297,22.41345,-13.26275,-10.33509,3.95039,41.423313,13.490295,26.572777,-12.612241,-9.858066,3.4746418,[9.916636 0.       0.      ],[-4.958318  8.588059  0.      ],[ 0.        0.       10.912215]
72,Bulk_crystal_40fs,-565.93634,-566.33856,21.39873,23.57859,23.15383,-10.61502,-1.03669,3.2211199,27.902586,29.753023,27.022745,-10.237627,-1.056866,2.562717,[9.916636 0.       0.      ],[-4.958318  8.588059  0.      ],[ 0.        0.       10.912215]
72,Bulk_crystal_40fs,-565.97217,-566.3406,12.58366,8.77439,6.94798,-5.33239,7.32284,6.06054,19.62932,15.681984,11.661993,-4.699973,7.057155,5.7562385,[9.916636 0.       0.      ],[-4.958318  8.588059  0.      ],[ 0.        0.       10.912215]
72,Bulk_crystal_40fs,-566.2326,-566.5779,15.788509,16.519781,7.0084796,4.3635902,12.606971,4.73891,22.738863,23.374907,11.48803,4.2753606,11.886918,4.5545573,[9.916636 0.       0.      ],[-4.958318  8.588059  0.      ],[ 0.        0.       10.912215]
72,Bulk_crystal_40fs,-566.50244,-566.79865,-2.88265,8.07479,4.10449,7.0423903,10.68568,-6.15516,4.543387,15.231973,8.634783,6.623729,10.172123,-5.301645,[9.916636 0.       0.      ],[-4.958318  8.588059  0.      ],[ 0.        0.       10.912215]
72,Bulk_crystal_40fs,-566.6678,-566.8947,11.273231,-2.3318,6.7773,-4.21598,-1.05011,-4.67856,17.91982,4.755677,11.292836,-4.3461237,-0.5192883,-4.0259147,[9.916636 0.       0.      ],[-4.958318  8.588059  0.      ],[ 0.        0.       10.912215]
72,Bulk_crystal_40fs,-566.2524,-566.52484,-4.45021,-8.918091,-11.48756,-3.07055,8.62802,3.11094,3.1468925,-1.4176581,-5.790304,-2.9259098,8.679126,2.9921355,[9.916636 0.       0.      ],[-4.958318  8.588059  0.      ],[ 0.        0.       10.912215]
72,Bulk_crystal_40fs,-566.53864,-566.834,6.7716403,16.70569,12.1158695,-3.91157,14.56739,4.66285,13.902127,23.468508,16.293406,-3.6924984,13.690274,4.227475,[9.916636 0.       0.      ],[-4.958318  8.588059  0.      ],[ 0.        0.       10.912215]
72,Bulk_crystal_40fs,-566.48126,-566.79456,6.6579204,-1.13387,12.07048,-10.02097,-1.32153,4.22191,14.181728,6.647719,16.645828,-9.491473,-1.321595,3.7394402,[9.916636 0.       0.      ],[-4.958318  8.588059  0.      ],[ 0.        0.       10.912215]
72,Bulk_crystal_40fs,-565.63007,-565.9949,10.198151,19.346352,21.0816,-2.9388,-2.13591,-0.1889,17.793713,26.247889,25.238174,-2.4711053,-2.0014648,-0.23407774,[9.916636 0.       0.      ],[-4.958318  8.588059  0.      ],[ 0.        0.       10.912215]
72,Bulk_crystal_40fs,-565.88904,-566.2358,3.3028002,2.18198,-2.26722,-2.59925,0.19353001,6.4443007,10.79473,10.384492,3.0872302,-2.150222,0.34679508,6.42153,[9.916636 0.       0.      ],[-4.958318  8.588059  0.      ],[ 0.        0.       10.912215]
72,Bulk_crystal_40fs,-565.82513,-566.23047,23.70804,29.19503,12.777801,-0.51584,-5.8365197,-7.16915,29.981464,35.57159,16.895088,-0.576983,-6.047902,-6.367749,[9.916636 0.       0.      ],[-4.958318  8.588059  0.      ],[ 0.        0.       10.912215]
72,Bulk_crystal_40fs,-565.72015,-566.14923,22.767931,26.67326,24.968811,-4.39196,-14.40509,-10.13464,28.433352,33.136543,28.654604,-3.896623,-13.853534,-9.070912,[9.916636 0.       0.      ],[-4.958318  8.588059  0.      ],[ 0.        0.       10.912215]
72,Bulk_crystal_40fs,-565.73376,-566.0963,16.74645,18.23312,19.89224,1.91509,-8.44163,-13.387039,23.247236,24.285149,23.787935,1.7306541,-8.56692,-12.364854,[9.916636 0.       0.      ],[-4.958318  8.588059  0.      ],[ 0.        0.       10.912215]
72,Bulk_crystal_40fs,-566.09686,-566.45685,20.29347,19.29275,16.33153,0.35197,0.91277,-3.18961,26.80467,25.429565,20.12074,0.07837604,0.791599,-2.8576279,[9.916636 0.       0.      ],[-4.958318  8.588059  0.      ],[ 0.        0.       10.912215]
72,Bulk_crystal_40fs,-566.46686,-566.7638,2.28122,4.64375,4.61172,3.28228,-2.19682,-12.82351,9.93489,11.429055,8.583135,2.9743428,-2.228349,-11.635151,[9.916636 0.       0.      ],[-4.958318  8.588059  0.      ],[ 0.        0.       10.912215]
72,Bulk_crystal_40fs,-566.6814,-566.9221,-2.081,8.63132,4.73561,-2.67249,8.92803,-5.39883,5.513467,15.96921,9.37003,-2.5046601,8.279864,-5.0836415,[9.916636 0.       0.      ],[-4.958318  8.588059  0.      ],[ 0.        0.       10.912215]
72,Bulk_crystal_40fs,-566.02606,-566.2843,-15.339681,-4.76308,-8.949241,3.52805,15.08208,4.49631,-7.3526607,3.2248578,-3.6466153,3.1937711,14.009004,4.527788,[9.916636 0.       0.      ],[-4.958318  8.588059  0.      ],[ 0.        0.       10.912215]
72,Bulk_crystal_40fs,-565.88495,-566.268,22.97088,28.06146,24.0147,-2.92932,5.7742105,5.99895,29.632881,33.94722,27.666264,-2.8272789,5.9217706,5.99679,[9.916636 0.       0.      ],[-4.958318  8.588059  0.      ],[ 0.        0.       10.912215]
72,Bulk_crystal_40fs,-566.47797,-566.85657,29.33677,14.008579,20.46099,-3.35665,-2.5539699,8.9215,34.93138,20.426098,23.867828,-3.3838365,-1.5688204,8.397717,[9.916636 0.       0.      ],[-4.958318  8.588059  0.      ],[ 0.        0.       10.912215]
72,Bulk_crystal_40fs,-566.1658,-566.51154,22.59774,1.9735799,16.18403,2.75386,2.17659,7.0249,29.4141,9.254341,20.462648,2.9030628,2.8635924,6.9500384,[9.916636 0.       0.      ],[-4.958318  8.588059  0.      ],[ 0.        0.       10.912215]
72,Bulk_crystal_40fs,-565.9883,-566.2828,-9.35176,-9.0305395,-5.68828,-4.59867,2.27271,2.4667802,-1.1781652,-1.3032914,-0.3337172,-4.1792464,2.285489,2.7335062,[9.916636 0.       0.      ],[-4.958318  8.588059  0.      ],[ 0.        0.       10.912215]
72,Bulk_crystal_40fs,-566.0162,-566.30835,-10.134311,8.79102,-6.05963,7.4438,3.2298203,-0.77149004,-2.1062586,15.675787,-0.58506805,7.1982617,2.6406581,-0.16251315,[9.916636 0.       0.      ],[-4.958318  8.588059  0.      ],[ 0.        0.       10.912215]
72,Bulk_crystal_40fs,-566.5707,-566.8923,15.33929,39.044518,21.23908,0.9733,2.9776,7.30896,21.850256,44.629044,24.269924,1.1982429,1.7487468,7.11113,[9.916636 0.       0.      ],[-4.958318  8.588059  0.      ],[ 0.        0.       10.912215]
72,Bulk_crystal_40fs,-566.00916,-566.35406,5.29876,14.96346,9.26563,-2.47617,5.03595,3.2930698,12.093593,21.810646,13.807848,-2.6576655,4.600391,2.477833,[9.916636 0.       0.      ],[-4.958318  8.588059  0.      ],[ 0.        0.       10.912215]
72,Bulk_crystal_40fs,-566.1349,-566.4374,19.0508,-2.8929899,7.8486805,-2.63377,-9.2944,-8.02427,26.032507,4.2127137,12.547006,-2.3156223,-8.569663,-8.0287285,[9.916636 0.       0.      ],[-4.958318  8.588059  0.      ],[ 0.        0.       10.912215]
72,Bulk_crystal_40fs,-566.26105,-566.5397,-2.19319,-6.7565703,-5.51118,-6.7271504,-18.02064,-3.92159,5.394672,0.7718092,-0.8386652,-6.7003684,-16.500336,-4.262986,[9.916636 0.       0.      ],[-4.958318  8.588059  0.      ],[ 0.        0.       10.912215]
72,Bulk_crystal_40fs,-566.3277,-566.65594,19.09478,16.59546,16.992472,-3.10381,-7.81008,0.92387,25.625734,23.32864,20.962324,-2.7195735,-7.248798,0.6170153,[9.916636 0.       0.      ],[-4.958318  8.588059  0.      ],[ 0.        0.       10.912215]
72,Bulk_crystal_40fs,-566.3466,-566.6411,0.21761,8.25037,6.34329,5.70504,3.27583,-6.33287,7.6279073,15.508521,11.142043,5.61932,2.7604861,-5.911438,[9.916636 0.       0.      ],[-4.958318  8.588059  0.      ],[ 0.        0.       10.912215]
72,Bulk_crystal_40fs,-566.1357,-566.4317,1.73345,13.80244,10.365641,-0.63286,6.4546103,-1.7174101,9.009406,20.325233,14.975072,-0.2456691,5.9739585,-1.4484141,[9.916636 0.       0.      ],[-4.958318  8.588059  0.      ],[ 0.        0.       10.912215]
72,Bulk_crystal_40fs,-565.90424,-566.2336,16.34877,5.5858803,5.11984,-3.6726902,13.4133,8.91486,23.155008,12.438739,9.509006,-3.3020918,12.451868,8.735987,[9.916636 0.       0.      ],[-4.958318  8.588059  0.      ],[ 0.        0.       10.912215]
72,Bulk_crystal_40fs,-566.3805,-566.72284,19.842442,22.1037,24.27768,-6.63638,13.048201,12.58562,26.254099,28.558332,27.455421,-6.6382,12.224015,12.086018,[9.916636 0.       0.      ],[-4.958318  8.588059  0.      ],[ 0.        0.       10.912215]
72,Bulk_crystal_40fs,-566.3785,-566.6248,-11.72471,-1.16542,-0.52364,-0.71274,5.6486697,9.426101,-3.5787814,6.9185348,4.401529,-0.63775,5.299177,9.323882,[9.916636 0.       0.      ],[-4.958318  8.588059  0.      ],[ 0.        0.       10.912215]
72,Bulk_crystal_40fs,-565.93933,-566.1803,-10.28806,7.33031,-9.26319,5.60262,3.9708903,6.7193503,-2.7203984,14.705363,-4.155965,5.508968,3.7453825,6.7123356,[9.916636 0.       0.      ],[-4.958318  8.588059  0.      ],[ 0.        0.       10.912215]
72,Bulk_crystal_40fs,-566.36664,-566.6797,6.20866,8.92947,5.60607,4.17699,-3.9698002,11.20671,12.87759,15.531985,9.93361,3.9570534,-3.8537421,10.751197,[9.916636 0.       0.      ],[-4.958318  8.588059  0.      ],[ 0.        0.       10.912215]
72,Bulk_crystal_40fs,-565.9619,-566.401,43.060833,28.31532,42.38097,-6.8804502,-2.74271,9.43914,48.655743,34.005733,44.78948,-6.6862626,-3.004955,8.741551,[9.916636 0.       0.      ],[-4.958318  8.588059  0.      ],[ 0.        0.       10.912215]
72,Bulk_crystal_40fs,-566.4499,-566.7508,12.826969,-3.02145,-0.30687,-7.98496,-0.86569005,3.2025,19.788961,4.5279555,4.0500817,-7.685469,-0.64629656,2.492274,[9.916636 0.       0.      ],[-4.958318  8.588059  0.      ],[ 0.        0.       10.912215]
72,Bulk_crystal_40fs,-566.4768,-566.68164,-14.437691,-8.95428,-11.72098,-6.25317,-2.47957,4.46779,-6.2524514,-0.76425356,-6.3272514,-5.951737,-2.2752326,3.980282,[9.916636 0.       0.      ],[-4.958318  8.588059  0.      ],[ 0.        0.       10.912215]
72,Bulk_crystal_40fs,-566.19855,-566.47095,-4.8678803,-4.81313,3.8852,16.35028,-2.96752,-13.27869,3.0350633,3.2078884,8.896533,15.579302,-2.9375548,-12.310645,[9.916636 0.       0.      ],[-4.958318  8.588059  0.      ],[ 0.        0.       10.912215]
72,Bulk_crystal_40fs,-566.5385,-566.8669,11.06407,25.301922,21.44792,10.90403,-2.34471,-19.789,18.008867,31.680756,24.6952,10.56132,-2.3554726,-17.874226,[9.916636 0.       0.      ],[-4.958318  8.588059  0.      ],[ 0.        0.       10.912215]
72,Bulk_crystal_40fs,-566.0418,-566.4043,26.267239,29.75215,20.34147,-2.03237,1.34273,-17.23841,32.852547,35.774967,23.831953,-1.8269129,1.5573599,-16.337894,[9.916636 0.       0.      ],[-4.958318  8.588059  0.      ],[ 0.        0.       10.912215]
72,Bulk_crystal_40fs,-566.09814,-566.3892,-6.2660804,-12.16002,-1.89423,-10.67267,-0.03601,-1.9301101,1.1003971,-4.8634343,2.975317,-10.428288,-0.2941471,-2.3027205,[9.916636 0.       0.      ],[-4.958318  8.588059  0.      ],[ 0.        0.       10.912215]
72,Bulk_crystal_40fs,-566.3406,-566.60144,3.81831,0.15622,7.97554,-5.35151,0.03722,6.3376303,11.676813,7.6550384,12.35002,-4.616753,-0.14927599,5.896699,[9.916636 0.       0.      ],[-4.958318  8.588059  0.      ],[ 0.        0.       10.912215]
72,Bulk_crystal_40fs,-565.7919,-566.1152,6.0164204,2.0537,1.15512,-1.98932,-4.03664,11.05364,13.178558,9.596182,5.5947933,-1.7367802,-3.76229,10.275015,[9.916636 0.       0.      ],[-4.958318  8.588059  0.      ],[ 0.        0.       10.912215]
72,Bulk_crystal_40fs,-566.63275,-566.94244,24.45276,29.52351,21.4308,4.36826,-6.22033,12.42743,31.12042,35.757732,24.622625,4.29569,-5.2688975,11.765324,[9.916636 0.       0.      ],[-4.958318  8.588059  0.      ],[ 0.        0.       10.912215]
72,Bulk_crystal_40fs,-566.8552,-567.0759,-7.1230803,-6.4750805,4.28458,4.88073,-6.185,-0.67686003,0.7739548,1.0802363,8.652022,4.565871,-5.6435747,-0.47359014,[9.916636 0.       0.      ],[-4.958318  8.588059  0.      ],[ 0.        0.       10.912215]
72,Bulk_crystal_40fs,-565.99396,-566.2166,-1.18501,-6.0304704,-5.6231003,-7.57665,3.69927,-2.95021,6.2807937,1.5531775,-0.8613547,-7.287418,3.575155,-2.3041248,[9.916636 0.       0.      ],[-4.958318  8.588059  0.      ],[ 0.        0.       10.912215]
72,Bulk_crystal_40fs,-566.202,-566.5045,4.9483304,2.90312,1.17552,0.03401,10.26472,2.6484802,12.379316,10.660474,5.9254756,-0.0752641,9.595192,3.0063636,[9.916636 0.       0.      ],[-4.958318  8.588059  0.      ],[ 0.        0.       10.912215]
72,Bulk_crystal_40fs,-566.1804,-566.5457,20.488321,28.53239,28.32156,1.42401,13.005011,3.7235403,26.981152,34.975,31.482334,1.5309453,12.090261,3.5391002,[9.916636 0.       0.      ],[-4.958318  8.588059  0.      ],[ 0.        0.       10.912215]
72,Bulk_crystal_40fs,-565.88086,-566.25836,12.21543,25.478022,20.82147,-4.5745597,12.56441,8.16213,19.20839,31.54579,24.486649,-4.2257686,11.444297,7.3429065,[9.916636 0.       0.      ],[-4.958318  8.588059  0.      ],[ 0.        0.       10.912215]
72,Bulk_crystal_40fs,-566.29803,-566.5378,-4.6101103,-4.35087,-4.9846,-3.20226,0.42724,7.72922,3.1347885,3.4831607,0.21688148,-3.2849388,0.18853492,6.76776,[9.916636 0.       0.      ],[-4.958318  8.588059  0.      ],[ 0.        0.       10.912215]
72,Bulk_crystal_40fs,-566.3732,-566.6131,-0.70048,-15.02394,-6.07124,-5.08062,-5.55348,-0.02768,6.8577704,-6.595965,-0.9555449,-4.768276,-4.751814,-0.37599704,[9.916636 0.       0.      ],[-4.958318  8.588059  0.      ],[ 0.        0.       10.912215]
72,Bulk_crystal_40fs,-566.3694,-566.6595,21.59773,-2.53809,13.39115,-0.59414,-6.5792904,-10.290131,28.178526,5.0395284,17.669968,-0.47576597,-5.8536267,-9.6082115,[9.916636 0.       0.      ],[-4.958318  8.588059  0.      ],[ 0.        0.       10.912215]
72,Bulk_crystal_40fs,-566.45233,-566.7806,18.20809,20.51896,20.173,14.35882,1.2364,-17.80095,24.476767,26.717691,23.513596,13.761851,1.1822566,-16.076168,[9.916636 0.       0.      ],[-4.958318  8.588059  0.      ],[ 0.        0.       10.912215]
72,Bulk_crystal_40fs,-565.8849,-566.199,0.31528002,10.57978,-0.53277,6.36298,0.61602,-9.66556,7.730002,17.36334,4.083229,5.802869,0.16487414,-9.026222,[9.916636 0.       0.      ],[-4.958318  8.588059  0.      ],[ 0.        0.       10.912215]
72,Bulk_crystal_40fs,-566.1877,-566.47504,-10.056581,11.01612,-1.30568,0.051969998,6.45634,-11.55457,-2.161773,17.596045,3.8468463,0.39764705,5.675459,-11.022033,[9.916636 0.       0.      ],[-4.958318  8.588059  0.      ],[ 0.        0.       10.912215]
72,Bulk_crystal_40fs,-566.3597,-566.6612,4.36499,17.32546,11.930571,-8.35553,2.05672,-1.41558,11.506549,23.900768,15.64252,-7.937545,1.6599284,-1.9932489,[9.916636 0.       0.      ],[-4.958318  8.588059  0.      ],[ 0.        0.       10.912215]
72,Bulk_crystal_40fs,-566.2166,-566.5539,31.56661,13.34726,17.49262,-5.61806,-9.29782,1.01502,37.671867,19.913874,21.07626,-5.698383,-8.667102,0.4288273,[9.916636 0.       0.      ],[-4.958318  8.588059  0.      ],[ 0.        0.       10.912215]
72,Bulk_crystal_40fs,-566.54877,-566.8324,14.453161,-6.6146097,5.2617702,-1.79468,-5.75894,-0.56636,20.87556,1.0073894,9.547255,-1.5916675,-4.7867355,-0.2895688,[9.916636 0.       0.      ],[-4.958318  8.588059  0.      ],[ 0.        0.       10.912215]
72,Bulk_crystal_40fs,-566.5249,-566.7767,3.86083,-3.5717,2.7269,9.26453,2.99299,-0.42113003,11.137364,4.2437263,7.1443195,8.681785,2.9151597,0.24529548,[9.916636 0.       0.      ],[-4.958318  8.588059  0.      ],[ 0.        0.       10.912215]
72,Bulk_crystal_40fs,-566.5409,-566.8321,2.02329,15.28721,6.20013,6.08146,1.00683,-0.77570003,9.617075,21.690165,10.286005,5.7680073,0.48666,-0.6033186,[9.916636 0.       0.      ],[-4.958318  8.588059  0.      ],[ 0.        0.       10.912215]
72,Bulk_crystal_40fs,-566.1899,-566.51733,5.5683103,16.5502,8.17637,3.47794,2.5966,-7.29575,12.7991705,23.05686,12.527882,3.332324,1.8483595,-6.315502,[9.916636 0.       0.      ],[-4.958318  8.588059  0.      ],[ 0.        0.       10.912215]
72,Bulk_crystal_40fs,-566.0137,-566.319,14.62825,10.852449,10.23826,-5.56025,17.47522,-0.058360003,21.724516,17.940369,13.879194,-5.1871037,16.29642,-0.3530731,[9.916636 0.       0.      ],[-4.958318  8.588059  0.      ],[ 0.        0.       10.912215]
72,Bulk_crystal_40fs,-566.6356,-566.92706,9.94184,7.6932197,8.2165,-0.30293,9.29035,4.98841,17.133986,15.180669,12.3801155,-0.16070089,8.50125,4.604455,[9.916636 0.       0.      ],[-4.958318  8.588059  0.      ],[ 0.        0.       10.912215]
72,Bulk_crystal_40fs,-566.6237,-566.86523,-0.46594003,9.17451,0.82493,0.49495,-4.43796,2.27449,7.1961703,15.849558,5.4139743,0.38703945,-4.2819195,2.0970845,[9.916636 0.       0.      ],[-4.958318  8.588059  0.      ],[ 0.        0.       10.912215]
72,Bulk_crystal_40fs,-566.25287,-566.5337,5.80951,2.38948,-1.92744,-2.02735,-8.31439,-1.4595699,12.91852,10.150751,2.7555287,-1.9083151,-7.904159,-1.4092124,[9.916636 0.       0.      ],[-4.958318  8.588059  0.      ],[ 0.        0.       10.912215]
72,Bulk_crystal_40fs,-566.33606,-566.62646,7.1897497,6.71321,12.20441,-3.0819,-3.85455,-3.03622,14.534778,13.809884,15.967465,-3.1062486,-3.358487,-3.2218637,[9.916636 0.       0.      ],[-4.958318  8.588059  0.      ],[ 0.        0.       10.912215]
72,Bulk_crystal_40fs,-565.8337,-566.20825,17.21325,6.34893,19.110931,-0.51981,-8.4525,-8.14197,24.187536,13.452131,23.196726,-0.4156725,-7.718643,-7.5789366,[9.916636 0.       0.      ],[-4.958318  8.588059  0.      ],[ 0.        0.       10.912215]
72,Bulk_crystal_40fs,-566.07654,-566.43384,18.24246,20.90807,16.18716,5.42869,-12.03821,-9.745151,24.413801,26.92475,19.689157,5.1028485,-11.819812,-8.969271,[9.916636 0.       0.      ],[-4.958318  8.588059  0.      ],[ 0.        0.       10.912215]
72,Bulk_crystal_40fs,-566.2959,-566.5913,-1.5007001,10.251571,3.8313098,5.49754,-1.9991801,-4.00071,5.314277,16.777752,8.515364,5.5390077,-2.6509943,-3.2732723,[9.916636 0.       0.      ],[-4.958318  8.588059  0.      ],[ 0.        0.       10.912215]
72,Bulk_crystal_40fs,-566.18024,-566.47406,-0.042260002,1.5841999,4.95746,-2.0051,0.91572005,8.18028,7.3880525,8.993124,9.244569,-1.8465819,0.54257035,7.6429725,[9.916636 0.       0.      ],[-4.958318  8.588059  0.      ],[ 0.        0.       10.912215]
72,Bulk_crystal_40fs,-566.12854,-566.44635,6.56284,7.5055904,11.35643,-6.7652,3.14101,-0.17366001,13.747151,14.03273,15.615451,-6.5293055,3.3954337,-0.16014065,[9.916636 0.       0.      ],[-4.958318  8.588059  0.      ],[ 0.        0.       10.912215]
72,Bulk_crystal_40fs,-566.55365,-566.88104,16.86091,17.52157,10.125831,-2.9904,1.47122,1.6873201,23.419556,24.373703,13.981546,-2.741217,1.2110776,1.5892974,[9.916636 0.       0.      ],[-4.958318  8.588059  0.      ],[ 0.        0.       10.912215]
72,Bulk_crystal_40fs,-566.43976,-566.7386,4.5440397,9.07329,5.49977,8.59522,1.1180301,0.57036,11.99731,15.789893,9.932686,7.7735105,1.0027493,0.6595331,[9.916636 0.       0.      ],[-4.958318  8.588059  0.      ],[ 0.        0.       10.912215]
72,Bulk_crystal_40fs,-565.7994,-566.08875,-4.32545,-10.31198,-0.61002004,-3.77112,1.78717,0.16611001,3.183549,-2.5089688,4.483616,-3.2698932,1.9209257,0.4064887,[9.916636 0.       0.      ],[-4.958318  8.588059  0.      ],[ 0.        0.       10.912215]
72,Bulk_crystal_40fs,-566.23193,-566.53784,7.3547697,2.69318,2.94309,5.8983,1.6211599,-7.6918097,14.120325,10.3893585,7.1842394,5.788048,1.6807325,-7.20929,[9.916636 0.       0.      ],[-4.958318  8.588059  0.      ],[ 0.        0.       10.912215]
72,Bulk_crystal_40fs,-565.94336,-566.32043,17.68704,16.33312,14.56829,-8.2118,-1.53551,6.73735,23.850023,22.363705,18.519264,-7.573421,-1.7553767,5.812064,[9.916636 0.       0.      ],[-4.958318  8.588059  0.      ],[ 0.        0.       10.912215]
72,Bulk_crystal_40fs,-565.8603,-566.271,20.64002,36.64989,33.611877,2.0855901,2.79407,-3.2329898,27.05224,42.3549,36.562363,1.9499826,2.1009905,-3.3057797,[9.916636 0.       0.      ],[-4.958318  8.588059  0.      ],[ 0.        0.       10.912215]
72,Bulk_crystal_40fs,-566.445,-566.7338,0.22176,3.70617,-1.0936,-3.29202,9.5048895,2.21329,8.002071,11.475305,3.765358,-3.0884633,8.783568,2.1028457,[9.916636 0.       0.      ],[-4.958318  8.588059  0.      ],[ 0.        0.       10.912215]
72,Bulk_crystal_40fs,-566.5455,-566.7636,-2.9083302,2.6183,-1.9675101,5.99452,7.70825,5.52257,4.697541,10.160897,2.7676952,5.686751,6.8605638,5.2009344,[9.916636 0.       0.      ],[-4.958318  8.588059  0.      ],[ 0.        0.       10.912215]
72,Bulk_crystal_40fs,-566.3759,-566.65015,-7.5399604,7.65092,-3.4042802,-5.70796,-5.43776,9.125111,-0.07916112,14.709759,1.232201,-5.2673855,-5.1569343,8.582153,[9.916636 0.       0.      ],[-4.958318  8.588059  0.      ],[ 0.        0.       10.912215]
72,MQA_h_40fs,-555.20825,-555.9798,15.42864,53.29867,78.40228,14.68044,13.794811,-15.36152,21.332355,55.43593,80.480736,13.665933,14.085097,-14.059903,[9.916636 0.       0.      ],[-4.958318  8.588059  0.      ],[ 0.        0.       10.912215]
72,MQA_h_40fs,-553.6105,-554.32104,18.25901,25.25953,75.89042,12.28733,28.13063,-21.64506,24.263283,29.77021,79.37662,11.283603,27.949053,-21.453716,[9.916636 0.       0.      ],[-4.958318  8.588059  0.      ],[ 0.        0.       10.912215]
72,MQA_h_40fs,-554.1228,-554.8788,-1.14567,60.962498,47.31942,23.98824,18.78315,-4.51656,7.8971972,63.822876,53.44031,23.266634,19.161406,-4.746388,[9.916636 0.       0.      ],[-4.958318  8.588059  0.      ],[ 0.        0.       10.912215]
72,MQA_h_40fs,-554.5716,-555.4053,6.3479304,62.82233,93.76916,2.79924,8.58934,-7.33839,13.7578,66.34615,98.51469,2.0891376,9.150025,-7.2824545,[9.916636 0.       0.      ],[-4.958318  8.588059  0.      ],[ 0.        0.       10.912215]
72,MQA_h_40fs,-553.7745,-554.65485,-7.1337,27.864672,70.11016,17.11829,14.11639,5.02067,-2.8671591,30.062563,71.64393,16.457272,14.638685,4.8682566,[9.916636 0.       0.      ],[-4.958318  8.588059  0.      ],[ 0.        0.       10.912215]
72,MQA_h_40fs,-554.12286,-554.94525,13.2434,44.02501,85.422066,5.1841,14.18737,-15.89066,18.893848,46.910217,88.06618,4.7473464,15.214403,-16.04789,[9.916636 0.       0.      ],[-4.958318  8.588059  0.      ],[ 0.        0.       10.912215]
72,MQA_h_40fs,-554.35754,-555.153,18.05571,69.14882,72.823524,4.38134,11.36627,-4.86367,24.913036,72.0318,76.82279,3.751391,12.506149,-3.7463312,[9.916636 0.       0.      ],[-4.958318  8.588059  0.      ],[ 0.        0.       10.912215]
72,MQA_h_40fs,-554.0957,-555.022,15.486821,37.39283,88.97168,6.3491898,2.7111201,-5.79061,20.9672,41.664623,91.57664,6.6730156,2.5245605,-4.7997146,[9.916636 0.       0.      ],[-4.958318  8.588059  0.      ],[ 0.        0.       10.912215]
72,MQA_h_40fs,-553.68884,-554.6744,7.36707,44.35959,72.49139,15.89803,0.10645,-2.28955,12.855515,47.803295,73.74583,15.318107,2.6523046,-2.0241833,[9.916636 0.       0.      ],[-4.958318  8.588059  0.      ],[ 0.        0.       10.912215]
72,MQA_h_40fs,-554.72003,-555.56824,2.2626002,43.887848,66.99054,12.223619,29.03782,-4.71801,10.497622,48.334225,71.12247,11.332365,28.991646,-4.129773,[9.916636 0.       0.      ],[-4.958318  8.588059  0.      ],[ 0.        0.       10.912215]
72,MQA_h_40fs,-554.3803,-555.10443,6.17709,44.68916,56.543213,-8.44296,10.41727,-1.13228,12.424261,50.48229,60.901737,-9.06039,11.289701,-0.19007383,[9.916636 0.       0.      ],[-4.958318  8.588059  0.      ],[ 0.        0.       10.912215]
72,MQA_h_40fs,-553.5399,-554.4248,-13.06924,29.39288,67.36255,10.5863905,8.847421,-2.09983,-5.705105,33.97005,69.84388,10.747781,10.504147,-0.83380324,[9.916636 0.       0.      ],[-4.958318  8.588059  0.      ],[ 0.        0.       10.912215]
72,MQA_h_40fs,-554.6677,-555.4991,13.58817,54.13907,85.62358,9.560881,4.12857,-5.1289,19.523092,58.308994,88.304085,8.851511,4.697062,-4.7576423,[9.916636 0.       0.      ],[-4.958318  8.588059  0.      ],[ 0.        0.       10.912215]
72,MQA_h_40fs,-554.1982,-554.9487,0.74027,24.97147,66.42025,-9.37195,8.72603,-4.27608,7.283732,30.034182,69.1466,-8.953021,10.018571,-4.212644,[9.916636 0.       0.      ],[-4.958318  8.588059  0.      ],[ 0.        0.       10.912215]
72,MQA_h_40fs,-554.34247,-555.1995,8.21535,47.14179,108.34213,10.30383,12.09523,-5.41439,14.535284,50.427143,112.17729,8.936338,13.462853,-5.051498,[9.916636 0.       0.      ],[-4.958318  8.588059  0.      ],[ 0.        0.       10.912215]
72,MQA_h_40fs,-555.0514,-555.87305,9.56595,54.00449,97.43723,13.962569,25.14695,-11.46914,15.669487,56.739487,100.60646,13.629617,26.069384,-10.210314,[9.916636 0.       0.      ],[-4.958318  8.588059  0.      ],[ 0.        0.       10.912215]
72,MQA_h_40fs,-553.6313,-554.4658,-10.45793,51.80624,68.22892,6.94127,20.37933,-14.241671,-3.1874635,55.64425,71.06405,6.774791,21.852638,-13.335511,[9.916636 0.       0.      ],[-4.958318  8.588059  0.      ],[ 0.        0.       10.912215]
72,MQA_h_40fs,-554.07886,-555.0258,31.930431,63.242588,77.875114,3.53797,16.678951,-8.23364,37.374996,67.187485,80.404,3.1069236,17.68485,-8.017687,[9.916636 0.       0.      ],[-4.958318  8.588059  0.      ],[ 0.        0.       10.912215]
72,MQA_h_40fs,-555.0805,-555.9505,8.5394,45.833313,84.48834,1.7754699,11.86568,0.38009998,14.851115,49.158104,88.03745,2.15342,12.476782,0.010310387,[9.916636 0.       0.      ],[-4.958318  8.588059  0.      ],[ 0.        0.       10.912215]
72,MQA_h_40fs,-554.10767,-554.92737,-28.25501,35.01861,70.17647,-2.08581,9.964411,6.11728,-19.843182,37.47109,74.32956,-1.8184258,11.278197,4.8472214,[9.916636 0.       0.      ],[-4.958318  8.588059  0.      ],[ 0.        0.       10.912215]
72,MQA_h_40fs,-553.4632,-554.3687,3.0098,58.383175,74.289375,-2.8273,11.79417,-12.22758,11.267226,62.15912,79.90823,-3.2134674,12.62153,-12.045696,[9.916636 0.       0.      ],[-4.958318  8.588059  0.      ],[ 0.        0.       10.912215]
72,MQA_h_40fs,-554.2417,-555.0425,13.426061,38.01704,90.496666,0.42612,5.97938,-11.91825,20.111961,40.97419,93.59425,0.4534236,6.3114085,-10.943194,[9.916636 0.       0.      ],[-4.958318  8.588059  0.      ],[ 0.        0.       10.912215]
72,MQA_h_40fs,-554.53235,-555.4533,1.72517,38.06474,82.73784,7.42387,9.01067,-4.19565,6.5774207,41.701412,85.754005,7.0154595,10.556372,-4.5580792,[9.916636 0.       0.      ],[-4.958318  8.588059  0.      ],[ 0.        0.       10.912215]
72,MQA_h_40fs,-554.1948,-554.96405,-15.216681,35.734562,70.22857,20.562891,22.70103,-2.79558,-7.7969,39.111652,73.93901,19.551256,22.238226,-1.2970245,[9.916636 0.       0.      ],[-4.958318  8.588059  0.      ],[ 0.        0.       10.912215]
72,MQA_h_40fs,-554.57495,-555.3319,5.26191,47.45108,89.93603,1.5223,5.52141,-15.680331,12.344285,50.9026,93.137924,0.6619212,7.3193693,-15.339561,[9.916636 0.       0.      ],[-4.958318  8.588059  0.      ],[ 0.        0.       10.912215]
72,MQA_h_40fs,-554.27563,-555.034,4.62512,44.18287,85.37324,-2.76666,13.12012,-3.06214,9.366882,46.71884,87.52476,-2.1826634,14.4442005,-2.7934203,[9.916636 0.       0.      ],[-4.958318  8.588059  0.      ],[ 0.        0.       10.912215]
72,MQA_h_40fs,-553.8047,-554.7453,-0.65214,58.98521,66.83374,9.796081,9.81202,-8.969891,4.14294,61.293873,71.08458,8.939103,11.0794325,-8.01709,[9.916636 0.       0.      ],[-4.958318  8.588059  0.      ],[ 0.        0.       10.912215]
72,MQA_h_40fs,-554.2845,-555.18805,17.22877,58.0984,83.10993,6.03116,2.00972,-8.77637,23.831305,62.179287,86.42696,5.2523355,3.3142543,-8.100093,[9.916636 0.       0.      ],[-4.958318  8.588059  0.      ],[ 0.        0.       10.912215]
72,MQA_h_40fs,-554.41956,-555.1617,-0.59831,36.10638,75.90912,-4.58068,7.8555503,-7.3679996,5.3567715,38.881447,79.57628,-4.7022953,8.876794,-7.8953047,[9.916636 0.       0.      ],[-4.958318  8.588059  0.      ],[ 0.        0.       10.912215]
72,MQA_h_40fs,-554.62335,-555.49677,4.90788,51.97168,89.0383,18.08046,17.25259,-12.41347,10.850266,57.18765,92.164505,16.870243,17.828175,-12.376381,[9.916636 0.       0.      ],[-4.958318  8.588059  0.      ],[ 0.        0.       10.912215]
72,MQA_h_40fs,-554.54297,-555.4207,4.26191,37.639038,55.538223,12.12411,0.99849004,-6.07824,10.892759,41.81826,59.413044,11.605477,1.293028,-5.365436,[9.916636 0.       0.      ],[-4.958318  8.588059  0.      ],[ 0.        0.       10.912215]
72,MQA_h_40fs,-553.94415,-554.7629,7.31615,33.82091,66.23275,5.75259,16.67555,-1.89084,14.899295,37.792187,69.882866,5.9743047,16.690859,-1.332523,[9.916636 0.       0.      ],[-4.958318  8.588059  0.      ],[ 0.        0.       10.912215]
72,MQA_h_40fs,-554.9957,-555.89124,17.181341,66.35137,80.22676,7.9380097,19.94031,-3.9717,23.268608,69.72788,83.51628,7.393525,20.867077,-3.069583,[9.916636 0.       0.      ],[-4.958318  8.588059  0.      ],[ 0.        0.       10.912215]
72,MQA_h_40fs,-554.58673,-555.47095,-0.35715,45.875202,71.116005,-10.51709,0.51607,-12.98173,6.2617574,47.02298,72.73297,-10.734833,0.8192606,-11.851653,[9.916636 0.       0.      ],[-4.958318  8.588059  0.      ],[ 0.        0.       10.912215]
72,MQA_h_40fs,-554.12274,-554.92773,18.502401,43.87825,96.66027,10.20366,0.75259,-13.018669,25.23468,49.077076,100.077896,9.448355,2.653435,-12.7051325,[9.916636 0.       0.      ],[-4.958318  8.588059  0.      ],[ 0.        0.       10.912215]
72,MQA_h_40fs,-554.13556,-554.93,9.283931,37.34843,66.217705,6.27529,1.8227901,9.15919,15.665189,41.40265,70.70406,6.3186417,3.843845,8.488728,[9.916636 0.       0.      ],[-4.958318  8.588059  0.      ],[ 0.        0.       10.912215]
72,MQA_h_40fs,-554.0818,-554.8822,1.49093,38.42773,59.99296,-0.35475,5.69811,-1.9611801,9.286525,43.333313,63.878452,-0.35120827,7.093234,-2.5304208,[9.916636 0.       0.      ],[-4.958318  8.588059  0.      ],[ 0.        0.       10.912215]
72,MQA_h_40fs,-554.67755,-555.5727,5.3007097,59.310772,74.27162,-1.20771,12.212131,-1.15051,10.472861,62.014526,76.63856,-2.1088493,12.424186,-1.6562426,[9.916636 0.       0.      ],[-4.958318  8.588059  0.      ],[ 0.        0.       10.912215]
72,MQA_h_40fs,-554.29895,-555.0941,7.461,43.27523,83.26572,10.14911,21.09792,2.29933,13.864046,47.20344,87.07793,9.691529,21.277369,2.8092725,[9.916636 0.       0.      ],[-4.958318  8.588059  0.      ],[ 0.        0.       10.912215]
72,MQA_h_40fs,-553.5643,-554.41113,21.230461,46.597908,60.34959,-4.89434,4.5957503,-28.170519,27.955305,49.59432,64.022514,-5.5968304,5.4769583,-25.7249,[9.916636 0.       0.      ],[-4.958318  8.588059  0.      ],[ 0.        0.       10.912215]
72,MQA_h_40fs,-554.66113,-555.61554,5.85045,45.1534,74.01838,21.6011,15.03963,-9.69994,11.789447,48.96857,77.12109,20.920553,15.542351,-8.65426,[9.916636 0.       0.      ],[-4.958318  8.588059  0.      ],[ 0.        0.       10.912215]
72,MQA_h_40fs,-554.80176,-555.57556,33.7901,69.14308,95.6136,17.43819,9.00967,-11.48597,40.258686,72.06417,99.45276,17.009312,10.679753,-12.24099,[9.916636 0.       0.      ],[-4.958318  8.588059  0.      ],[ 0.        0.       10.912215]
72,MQA_h_40fs,-554.53503,-555.3409,10.34597,20.696041,53.21436,12.704141,12.69893,-4.56533,15.626286,23.40493,56.571674,11.847477,13.9860935,-4.5469956,[9.916636 0.       0.      ],[-4.958318  8.588059  0.      ],[ 0.        0.       10.912215]
72,MQA_h_40fs,-553.9533,-554.75806,30.38241,44.88928,70.83251,7.40928,13.93005,-4.15901,36.326096,48.70753,74.65399,7.819888,15.177304,-3.9827561,[9.916636 0.       0.      ],[-4.958318  8.588059  0.      ],[ 0.        0.       10.912215]
72,MQA_h_40fs,-553.39124,-554.32227,0.99880004,34.242752,58.67013,-3.9933903,11.22379,-11.64191,5.754851,38.0493,60.31688,-3.9077282,11.110098,-9.974801,[9.916636 0.       0.      ],[-4.958318  8.588059  0.      ],[ 0.        0.       10.912215]
72,MQA_h_40fs,-554.17285,-554.95844,-11.272779,53.81932,65.989586,2.9593601,-5.4019804,-7.2967606,-4.3191366,57.758778,69.0149,3.1309526,-4.6918993,-6.7094336,[9.916636 0.       0.      ],[-4.958318  8.588059  0.      ],[ 0.        0.       10.912215]
72,MQA_h_40fs,-555.1005,-555.6715,4.2293997,62.11792,62.033154,19.6698,5.99937,-2.56064,11.051289,65.56805,67.10704,18.03806,6.652018,-2.4556067,[9.916636 0.       0.      ],[-4.958318  8.588059  0.      ],[ 0.        0.       10.912215]
72,MQA_h_40fs,-554.2038,-554.8652,-2.77987,40.234863,74.85293,16.760931,14.735721,-9.24868,5.6609993,42.343483,79.64533,15.9986725,14.782988,-8.082568,[9.916636 0.       0.      ],[-4.958318  8.588059  0.      ],[ 0.        0.       10.912215]
72,MQA_h_40fs,-554.2866,-555.0705,8.74829,40.07001,79.34371,3.10298,5.10544,-12.84967,15.445503,42.727905,83.14835,2.2809598,5.821247,-12.47785,[9.916636 0.       0.      ],[-4.958318  8.588059  0.      ],[ 0.        0.       10.912215]
72,MQA_h_40fs,-554.9376,-555.6876,-2.34513,35.0914,57.27824,7.40717,17.69598,-9.41217,3.8098414,38.226307,61.348293,7.3120685,18.349077,-8.999373,[9.916636 0.       0.      ],[-4.958318  8.588059  0.      ],[ 0.        0.       10.912215]
72,MQA_h_40fs,-553.546,-554.35394,16.81467,47.455532,82.99469,11.39678,15.22703,-8.05624,23.469568,50.661594,86.787155,11.138419,16.274727,-8.824451,[9.916636 0.       0.      ],[-4.958318  8.588059  0.      ],[ 0.        0.       10.912215]
72,MQA_h_40fs,-554.4319,-555.252,5.34032,27.72825,61.65118,1.05861,7.71773,-5.95939,11.250528,31.543219,65.90904,0.9107758,8.689531,-5.5602307,[9.916636 0.       0.      ],[-4.958318  8.588059  0.      ],[ 0.        0.       10.912215]
72,MQA_h_40fs,-555.00037,-555.88824,27.260891,57.37683,80.227585,9.663671,12.06744,-17.03541,31.935972,60.95829,83.48978,8.626113,13.654754,-16.761967,[9.916636 0.       0.      ],[-4.958318  8.588059  0.      ],[ 0.        0.       10.912215]
72,MQA_h_40fs,-553.2521,-554.1923,15.38461,67.56667,77.9838,3.9854102,24.535181,-4.69178,23.087639,71.45268,80.798874,3.63043,25.08485,-4.570447,[9.916636 0.       0.      ],[-4.958318  8.588059  0.      ],[ 0.        0.       10.912215]
72,MQA_h_40fs,-554.2183,-555.05,14.64354,55.74143,82.56769,11.254951,18.875101,-6.7785897,21.343767,59.029922,85.3968,10.419069,20.754465,-6.1759467,[9.916636 0.       0.      ],[-4.958318  8.588059  0.      ],[ 0.        0.       10.912215]
72,MQA_h_40fs,-555.15924,-556.0086,3.44183,47.527542,97.6362,9.63584,23.40891,-0.78335005,9.378969,51.118458,100.05898,9.408211,24.262226,-0.1358666,[9.916636 0.       0.      ],[-4.958318  8.588059  0.      ],[ 0.        0.       10.912215]
72,MQA_h_40fs,-554.2046,-555.0193,-1.0498999,45.392372,64.2424,4.14838,7.6894703,-4.34213,6.145016,50.40294,67.41375,2.9741678,8.812928,-3.1198163,[9.916636 0.       0.      ],[-4.958318  8.588059  0.      ],[ 0.        0.       10.912215]
72,MQA_h_40fs,-553.9001,-554.7717,-2.01613,21.89706,71.94977,-2.20124,9.35931,-8.77419,4.832201,25.844198,73.94969,-1.938809,8.94349,-7.7542763,[9.916636 0.       0.      ],[-4.958318  8.588059  0.      ],[ 0.        0.       10.912215]
72,MQA_h_40fs,-554.3221,-555.15546,6.2741604,42.288,73.14471,-5.57534,7.89454,-3.2371302,12.512206,45.978115,76.536896,-5.46381,8.422034,-4.2707295,[9.916636 0.       0.      ],[-4.958318  8.588059  0.      ],[ 0.        0.       10.912215]
72,MQA_h_40fs,-554.26776,-555.08813,7.81045,38.280743,92.931885,-0.36003,20.7888,0.82289,15.66098,42.09657,96.77369,-1.0284139,21.971165,0.8196495,[9.916636 0.       0.      ],[-4.958318  8.588059  0.      ],[ 0.        0.       10.912215]
72,MQA_h_40fs,-554.4483,-555.2675,-17.18141,33.708717,68.65026,7.0308404,23.83097,6.9003906,-10.007671,37.49098,72.73589,6.189141,24.261831,7.1317644,[9.916636 0.       0.      ],[-4.958318  8.588059  0.      ],[ 0.        0.       10.912215]
72,MQA_h_40fs,-554.7305,-555.5792,16.55994,50.781105,79.51481,9.51944,19.58987,-2.32565,24.332947,54.648254,83.68796,9.033579,19.846474,-1.6902689,[9.916636 0.       0.      ],[-4.958318  8.588059  0.      ],[ 0.        0.       10.912215]
72,MQA_h_40fs,-554.1739,-555.0076,-2.8112202,33.57895,76.89546,1.8476901,12.58145,-16.35569,2.681919,37.041225,80.21194,1.4638652,14.046464,-15.484607,[9.916636 0.       0.      ],[-4.958318  8.588059  0.      ],[ 0.        0.       10.912215]
72,MQA_h_40fs,-553.9687,-554.8406,33.23814,67.71365,114.59009,28.52092,25.12156,-5.822,37.68068,70.812325,116.87642,27.586754,25.109564,-5.3735957,[9.916636 0.       0.      ],[-4.958318  8.588059  0.      ],[ 0.        0.       10.912215]
72,MQA_h_40fs,-554.3706,-555.194,-11.5968895,29.604319,58.99009,13.49887,18.84828,-1.74956,-5.305198,34.693497,62.827663,13.684305,19.96775,-0.90338296,[9.916636 0.       0.      ],[-4.958318  8.588059  0.      ],[ 0.        0.       10.912215]
72,MQA_h_40fs,-554.5452,-555.3759,7.99593,34.86901,59.5702,5.52135,6.3627896,-13.010941,14.315902,39.23108,63.163372,4.89124,7.0343328,-12.246682,[9.916636 0.       0.      ],[-4.958318  8.588059  0.      ],[ 0.        0.       10.912215]
72,MQA_h_40fs,-554.7914,-555.6157,40.83178,79.70512,91.67258,9.91899,13.05879,-2.27329,46.686886,81.592636,96.085976,8.849099,13.7810755,-1.5733403,[9.916636 0.       0.      ],[-4.958318  8.588059  0.      ],[ 0.        0.       10.912215]
72,MQA_h_40fs,-553.7271,-554.47864,-3.5735803,35.86623,57.32144,4.07901,26.55762,0.88258,4.8938875,37.924164,62.37569,4.12922,27.121012,0.49024782,[9.916636 0.       0.      ],[-4.958318  8.588059  0.      ],[ 0.        0.       10.912215]
72,MQA_h_40fs,-553.71747,-554.45447,8.22959,39.25713,81.63261,10.19771,16.25976,-1.6711401,15.218045,42.844215,85.71648,9.652836,17.29507,-1.7305484,[9.916636 0.       0.      ],[-4.958318  8.588059  0.      ],[ 0.        0.       10.912215]
72,MQA_h_40fs,-554.9388,-555.7197,17.46071,45.9126,94.937225,2.9858902,6.38107,-8.01772,23.839138,49.38316,97.89619,2.8156133,6.8434854,-6.390631,[9.916636 0.       0.      ],[-4.958318  8.588059  0.      ],[ 0.        0.       10.912215]
72,MQA_h_40fs,-554.0931,-554.8218,11.47044,26.071602,47.99665,-2.3247502,-0.90726006,-5.09187,18.569603,30.644188,50.92689,-2.0780725,-0.40971088,-4.293103,[9.916636 0.       0.      ],[-4.958318  8.588059  0.      ],[ 0.        0.       10.912215]
72,MQA_h_40fs,-553.8551,-554.6767,15.484631,35.27097,71.82373,1.34693,5.65701,-24.13866,23.51228,39.23783,75.59708,1.0623347,6.5724874,-22.079128,[9.916636 0.       0.      ],[-4.958318  8.588059  0.      ],[ 0.        0.       10.912215]
72,MQA_h_40fs,-554.06714,-554.8126,6.5479603,37.68552,71.21865,19.76337,18.63042,-25.17057,12.270186,41.6285,74.27174,18.45548,18.344515,-24.363901,[9.916636 0.       0.      ],[-4.958318  8.588059  0.      ],[ 0.        0.       10.912215]
72,MQA_h_40fs,-554.0056,-554.8565,5.88781,32.24547,50.88983,8.82964,15.51256,-9.2208,12.60789,35.277954,55.072094,8.481194,15.89199,-7.67969,[9.916636 0.       0.      ],[-4.958318  8.588059  0.      ],[ 0.        0.       10.912215]
72,MQA_h_40fs,-554.59045,-555.3748,36.60938,54.730846,70.645065,9.14968,7.59125,-10.39147,43.581295,58.78751,74.021996,8.017039,9.180546,-9.606612,[9.916636 0.       0.      ],[-4.958318  8.588059  0.      ],[ 0.        0.       10.912215]
72,MQA_h_40fs,-554.37085,-555.23035,17.46504,46.05872,71.65238,12.60764,1.71769,-2.4311,24.47916,49.05403,77.038,12.057115,2.7137465,-1.6973568,[9.916636 0.       0.      ],[-4.958318  8.588059  0.      ],[ 0.        0.       10.912215]
72,MQA_h_40fs,-554.38336,-555.22736,-12.75265,23.10417,63.826218,4.9632,-2.78213,2.0989199,-5.3558855,26.793581,66.22952,4.774149,-1.6951841,1.4345726,[9.916636 0.       0.      ],[-4.958318  8.588059  0.      ],[ 0.        0.       10.912215]
72,MQA_h_40fs,-554.76666,-555.6359,-7.8784904,55.54162,75.2239,6.53421,17.16966,-0.24899001,-1.1646562,59.905277,79.60363,5.9017973,17.232483,0.3145437,[9.916636 0.       0.      ],[-4.958318  8.588059  0.      ],[ 0.        0.       10.912215]
72,MQA_h_40fs,-554.792,-555.613,18.85285,60.62976,73.10549,16.82361,11.715171,-14.222431,23.723242,64.87324,77.83523,16.11958,12.713477,-13.404648,[9.916636 0.       0.      ],[-4.958318  8.588059  0.      ],[ 0.        0.       10.912215]
72,MQA_h_40fs,-554.46716,-555.3936,-8.23764,51.66032,68.0201,-1.00223,1.93833,-6.93359,-2.831935,54.73841,70.522484,-1.6664437,3.1428092,-5.5103908,[9.916636 0.       0.      ],[-4.958318  8.588059  0.      ],[ 0.        0.       10.912215]
72,MQA_h_40fs,-554.12604,-554.9701,17.11564,70.014534,92.46125,4.34691,1.6959299,-1.8199699,22.411217,72.415504,95.626816,3.3825328,3.6260371,-0.7622349,[9.916636 0.       0.      ],[-4.958318  8.588059  0.      ],[ 0.        0.       10.912215]
72,MQA_h_40fs,-554.31775,-555.2088,7.55634,50.21651,91.77035,5.93904,15.297641,-0.10766,14.627998,53.108536,94.95019,4.9418774,16.426914,0.8688281,[9.916636 0.       0.      ],[-4.958318  8.588059  0.      ],[ 0.        0.       10.912215]
72,MQA_h_40fs,-554.1829,-555.06586,-2.82102,60.413383,74.15609,-12.763831,-5.3930297,14.05819,4.9396276,64.5649,76.92556,-11.982361,-2.78207,13.43923,[9.916636 0.       0.      ],[-4.958318  8.588059  0.      ],[ 0.        0.       10.912215]
72,MQA_h_40fs,-553.8,-554.7011,3.9731202,57.68657,88.777794,-13.115749,3.27751,13.38987,10.212518,62.369614,91.66749,-12.317493,3.613636,13.2341795,[9.916636 0.       0.      ],[-4.958318  8.588059  0.      ],[ 0.        0.       10.912215]
72,MQA_h_40fs,-554.3626,-555.2257,3.56449,48.15359,66.80586,-12.8265505,-1.93085,3.95293,10.17727,52.16054,69.83451,-13.242173,-0.017675508,4.3223934,[9.916636 0.       0.      ],[-4.958318  8.588059  0.      ],[ 0.        0.       10.912215]
72,MQA_h_40fs,-554.11804,-554.95166,11.262569,48.01928,70.7586,-13.06827,-5.8400903,-5.3927503,19.140913,52.273033,73.77823,-12.880008,-4.7861514,-5.376351,[9.916636 0.       0.      ],[-4.958318  8.588059  0.      ],[ 0.        0.       10.912215]
72,MQA_h_40fs,-554.3479,-555.2798,1.04791,25.505331,68.67664,7.33374,7.47231,-7.66125,7.3837514,29.504274,71.93995,6.282826,8.148107,-6.484466,[9.916636 0.       0.      ],[-4.958318  8.588059  0.      ],[ 0.        0.       10.912215]
72,MQA_h_40fs,-554.1254,-554.9919,17.42941,49.681923,71.19153,3.5166001,13.77366,-8.60419,24.669704,53.76709,74.52345,3.1407905,14.241533,-8.95077,[9.916636 0.       0.      ],[-4.958318  8.588059  0.      ],[ 0.        0.       10.912215]
72,MQA_h_40fs,-554.51263,-555.3258,2.33107,40.811493,66.18793,5.55124,9.678471,-9.57219,8.307727,43.987377,70.97498,5.401516,10.944693,-8.847719,[9.916636 0.       0.      ],[-4.958318  8.588059  0.      ],[ 0.        0.       10.912215]
72,MQA_h_40fs,-554.68256,-555.44183,22.519701,50.40168,86.68554,-4.3190503,14.746791,3.56153,27.941078,52.580563,90.12711,-4.6011057,14.870798,3.0428846,[9.916636 0.       0.      ],[-4.958318  8.588059  0.      ],[ 0.        0.       10.912215]
72,MQA_h_40fs,-554.054,-554.95734,1.72833,48.47559,60.33461,-3.7525198,8.14851,-18.52742,7.04322,49.44398,64.13291,-3.9686654,9.5237665,-16.892212,[9.916636 0.       0.      ],[-4.958318  8.588059  0.      ],[ 0.        0.       10.912215]
72,MQA_h_40fs,-554.14453,-554.92737,28.97885,41.812912,74.28965,1.17608,-0.08476,-22.72073,35.568035,45.131798,78.39612,1.3858402,1.4352727,-21.836323,[9.916636 0.       0.      ],[-4.958318  8.588059  0.      ],[ 0.        0.       10.912215]
72,MQA_h_40fs,-554.90967,-555.64465,8.84715,37.84985,63.55153,11.24673,10.512691,-2.06121,14.466851,40.776413,67.03199,11.061382,10.968849,-2.4983077,[9.916636 0.       0.      ],[-4.958318  8.588059  0.      ],[ 0.        0.       10.912215]
72,MQA_h_40fs,-554.1418,-554.9379,29.0502,48.162838,82.41204,25.26778,5.75142,-3.40123,35.68539,52.160828,86.27691,24.48979,6.7554946,-3.7943044,[9.916636 0.       0.      ],[-4.958318  8.588059  0.      ],[ 0.        0.       10.912215]
72,MQA_h_40fs,-554.552,-555.23694,3.60997,43.070923,70.06897,11.6179495,9.05226,-21.08865,10.956658,46.86398,74.08346,10.954424,9.739301,-20.31555,[9.916636 0.       0.      ],[-4.958318  8.588059  0.      ],[ 0.        0.       10.912215]
72,MQA_h_40fs,-554.1703,-554.98505,6.97849,49.71301,53.58724,4.38628,10.1517,-4.9769,13.662386,52.86291,57.251766,3.9880419,10.669357,-3.5953162,[9.916636 0.       0.      ],[-4.958318  8.588059  0.      ],[ 0.        0.       10.912215]
72,MQA_h_40fs,-553.82043,-554.5086,22.85205,52.02922,66.47924,-3.16352,5.3632298,-8.99351,28.002623,55.883286,70.184555,-3.2963243,6.610799,-8.866381,[9.916636 0.       0.      ],[-4.958318  8.588059  0.      ],[ 0.        0.       10.912215]
72,MQA_h_40fs,-554.75793,-555.5522,3.9728103,48.624283,69.71717,21.81917,-3.96168,-7.8726406,11.228812,52.53703,73.724945,20.89762,-2.5485594,-6.373512,[9.916636 0.       0.      ],[-4.958318  8.588059  0.      ],[ 0.        0.       10.912215]
72,MQA_h_40fs,-554.21735,-555.03815,12.592959,47.61741,76.12651,17.42198,-3.11945,-16.6724,19.067112,50.838413,78.77145,16.912144,-2.606711,-16.167015,[9.916636 0.       0.      ],[-4.958318  8.588059  0.      ],[ 0.        0.       10.912215]
72,MQA_h_40fs,-553.6852,-554.60986,8.95551,39.61925,58.06065,3.5578601,16.44232,-19.305649,15.438606,43.649403,62.25653,3.234037,17.599411,-17.802902,[9.916636 0.       0.      ],[-4.958318  8.588059  0.      ],[ 0.        0.       10.912215]
72,MQA_h_40fs,-554.8811,-555.701,-9.94096,43.86568,59.3704,7.7039604,8.81894,-6.9051304,-2.2438147,47.096874,63.61096,7.7664776,9.632532,-6.244998,[9.916636 0.       0.      ],[-4.958318  8.588059  0.      ],[ 0.        0.       10.912215]
72,MQA_h_40fs,-554.04034,-554.8431,9.83699,51.362846,71.756546,12.77361,7.2772403,3.87473,15.837661,54.8838,75.845726,11.38345,7.5701694,3.7928748,[9.916636 0.       0.      ],[-4.958318  8.588059  0.      ],[ 0.        0.       10.912215]
72,MQA_h_40fs,-554.0578,-554.86816,8.72188,38.390553,76.61756,0.36171,8.57355,-13.704611,14.987096,43.542908,79.149376,-0.012636842,9.956011,-12.978898,[9.916636 0.       0.      ],[-4.958318  8.588059  0.      ],[ 0.        0.       10.912215]
72,MQA_h_40fs,-554.2662,-555.1616,6.29663,39.308952,76.72768,-0.14446,21.78473,-13.49483,12.226413,43.401394,79.98767,-0.40730387,23.432497,-12.607767,[9.916636 0.       0.      ],[-4.958318  8.588059  0.      ],[ 0.        0.       10.912215]
72,MQA_h_40fs,-554.4263,-555.24457,3.36033,41.70105,73.00346,15.97039,17.47097,-4.95406,8.907998,45.90925,76.24552,15.385698,18.778015,-4.44926,[9.916636 0.       0.      ],[-4.958318  8.588059  0.      ],[ 0.        0.       10.912215]
72,MQA_h_40fs,-554.2616,-555.1097,8.781381,66.36286,79.61273,3.69106,15.598559,2.6166399,15.267418,69.67453,83.784485,3.2779295,16.269762,2.515783,[9.916636 0.       0.      ],[-4.958318  8.588059  0.      ],[ 0.        0.       10.912215]
72,MQA_h_40fs,-553.56134,-554.52313,8.11405,21.403051,48.87765,-0.98678994,18.73078,-5.6533303,14.124866,25.363674,51.960865,-1.1251636,19.322718,-4.7731085,[9.916636 0.       0.      ],[-4.958318  8.588059  0.      ],[ 0.        0.       10.912215]
72,MQA_h_40fs,-554.8833,-555.78973,24.82513,59.356438,71.423935,-1.5663,19.4192,-3.4463303,30.528685,62.468323,75.674675,-2.0226266,20.687408,-3.5803523,[9.916636 0.       0.      ],[-4.958318  8.588059  0.      ],[ 0.        0.       10.912215]
72,MQA_h_40fs,-555.2608,-555.99524,17.67129,47.690613,72.76417,14.69544,14.96194,-4.5732603,23.721378,51.244965,76.91397,13.832898,15.511449,-4.1242995,[9.916636 0.       0.      ],[-4.958318  8.588059  0.      ],[ 0.        0.       10.912215]
72,MQA_h_40fs,-553.6491,-554.45984,9.46924,61.16696,73.96242,15.29514,10.24314,6.20181,17.948242,64.50004,78.6931,14.642433,11.122001,5.9951434,[9.916636 0.       0.      ],[-4.958318  8.588059  0.      ],[ 0.        0.       10.912215]
72,MQA_h_40fs,-553.8816,-554.6479,-15.149791,49.02683,68.40735,16.77635,21.40749,-7.7719603,-8.181502,52.249367,71.61073,16.441076,22.281815,-7.447735,[9.916636 0.       0.      ],[-4.958318  8.588059  0.      ],[ 0.        0.       10.912215]
72,MQA_h_40fs,-554.7225,-555.4817,20.95203,62.482445,67.510826,1.33709,16.49226,-4.46386,27.98887,63.698204,70.48577,0.8418552,16.818079,-4.1763535,[9.916636 0.       0.      ],[-4.958318  8.588059  0.      ],[ 0.        0.       10.912215]
72,MQA_h_40fs,-553.8343,-554.6012,19.31415,44.2597,72.099,8.03697,13.807381,-1.8550899,25.275549,49.584934,76.91616,7.3039265,14.491882,-0.3683164,[9.916636 0.       0.      ],[-4.958318  8.588059  0.      ],[ 0.        0.       10.912215]
72,MQA_h_40fs,-554.1042,-554.8495,-12.56057,23.351511,36.39252,13.5644,23.21849,-8.36475,-5.063476,27.300161,40.238285,11.690148,23.280624,-8.276265,[9.916636 0.       0.      ],[-4.958318  8.588059  0.      ],[ 0.        0.       10.912215]
72,MQA_h_40fs,-554.45447,-555.28595,3.45337,46.28064,81.19467,10.34142,27.559872,-4.55583,9.994488,49.26247,83.60327,9.875064,27.835823,-4.007219,[9.916636 0.       0.      ],[-4.958318  8.588059  0.      ],[ 0.        0.       10.912215]
72,MQA_h_40fs,-553.7524,-554.5924,30.60009,55.550266,74.86283,22.76523,9.45946,3.6228201,37.20207,58.207314,78.88129,21.980053,10.86397,3.8915205,[9.916636 0.       0.      ],[-4.958318  8.588059  0.      ],[ 0.        0.       10.912215]
72,MQA_h_40fs,-554.2809,-555.0883,11.60953,55.30173,89.58105,7.1317706,14.34507,5.40572,18.19036,58.266647,94.64313,6.852558,15.279713,4.4532895,[9.916636 0.       0.      ],[-4.958318  8.588059  0.      ],[ 0.        0.       10.912215]
72,MQA_h_40fs,-554.5563,-555.36865,8.04332,20.283781,71.762054,9.322929,16.50637,4.33941,14.935562,23.630363,74.51151,8.161508,17.166132,4.9766526,[9.916636 0.       0.      ],[-4.958318  8.588059  0.      ],[ 0.        0.       10.912215]
72,MQA_h_40fs,-554.0742,-555.04865,18.48301,59.533077,87.12114,11.7976,24.95038,-1.27704,25.007309,63.035038,88.79719,10.754949,24.755331,0.16206348,[9.916636 0.       0.      ],[-4.958318  8.588059  0.      ],[ 0.        0.       10.912215]
72,MQA_h_40fs,-554.1084,-555.0275,16.18727,50.9226,69.60141,1.65031,16.08844,-16.38497,23.01992,54.431168,71.81223,1.571858,16.885937,-14.274402,[9.916636 0.       0.      ],[-4.958318  8.588059  0.      ],[ 0.        0.       10.912215]
72,MQA_h_40fs,-554.4894,-555.3031,-0.97369,41.66116,62.695717,5.4612703,12.27996,-8.55406,5.53398,46.42402,65.35461,5.4011745,12.94647,-7.195628,[9.916636 0.       0.      ],[-4.958318  8.588059  0.      ],[ 0.        0.       10.912215]
72,MQA_h_40fs,-554.41547,-555.18756,16.194029,57.173374,77.71065,5.3505197,17.47913,5.86863,22.027742,61.61479,81.766,3.6269367,19.126568,6.361659,[9.916636 0.       0.      ],[-4.958318  8.588059  0.      ],[ 0.        0.       10.912215]
72,MQA_h_40fs,-553.9038,-554.752,1.0046301,43.240078,83.31776,14.54566,4.8043404,15.05296,8.1850395,47.673904,87.23182,13.878031,6.7943707,15.681495,[9.916636 0.       0.      ],[-4.958318  8.588059  0.      ],[ 0.        0.       10.912215]
72,MQA_h_40fs,-553.4147,-554.36865,11.67338,44.34562,79.791725,2.50056,6.7727304,5.19915,16.332699,49.744217,82.73114,1.5888243,8.229262,4.979568,[9.916636 0.       0.      ],[-4.958318  8.588059  0.      ],[ 0.        0.       10.912215]
72,MQA_h_40fs,-554.3455,-555.2345,7.03588,30.742899,58.8345,-5.06006,6.8588,-6.74882,13.789575,36.442318,61.2761,-5.0271645,7.529376,-5.6988106,[9.916636 0.       0.      ],[-4.958318  8.588059  0.      ],[ 0.        0.       10.912215]
72,MQA_h_40fs,-554.5054,-555.3738,22.45465,54.21881,85.026695,6.01468,13.83362,-5.82642,30.5161,58.55306,87.88059,5.4759984,15.579222,-5.6102414,[9.916636 0.       0.      ],[-4.958318  8.588059  0.      ],[ 0.        0.       10.912215]
72,MQA_h_40fs,-553.9824,-554.8755,8.03306,35.65012,96.43064,13.64473,9.66884,5.5248804,15.298533,38.694023,97.78799,12.908919,10.609813,6.1597366,[9.916636 0.       0.      ],[-4.958318  8.588059  0.      ],[ 0.        0.       10.912215]
72,MQA_h_40fs,-554.0088,-554.9006,9.00131,40.52732,81.88301,-1.9547101,10.77661,0.54868996,14.786055,45.34593,84.75808,-2.1731086,11.6814575,0.34127858,[9.916636 0.       0.      ],[-4.958318  8.588059  0.      ],[ 0.        0.       10.912215]
72,MQA_h_40fs,-554.8651,-555.68555,20.067171,31.22316,82.56591,1.64825,10.77698,-6.35466,25.444298,35.677807,85.6502,1.4586896,11.81333,-6.217578,[9.916636 0.       0.      ],[-4.958318  8.588059  0.      ],[ 0.        0.       10.912215]
72,MQA_h_40fs,-554.34937,-555.261,28.28136,61.850784,89.91457,10.92007,22.07086,-8.6123,33.51201,65.41271,92.90347,9.791748,23.09104,-7.537692,[9.916636 0.       0.      ],[-4.958318  8.588059  0.      ],[ 0.        0.       10.912215]
72,MQA_h_40fs,-554.0511,-554.8452,4.33192,47.48966,85.12548,-0.71341,21.56012,-2.86558,10.096465,49.98176,87.744576,0.22449183,22.558931,-2.5273602,[9.916636 0.       0.      ],[-4.958318  8.588059  0.      ],[ 0.        0.       10.912215]
72,MQA_h_40fs,-554.82477,-555.70575,-9.989201,44.67358,77.26458,15.65853,17.96225,-10.56757,-2.7823362,47.884354,79.638626,15.205093,18.874865,-10.96494,[9.916636 0.       0.      ],[-4.958318  8.588059  0.      ],[ 0.        0.       10.912215]
72,MQA_h_40fs,-554.6776,-555.47516,13.84603,60.046543,74.49755,25.46711,9.32691,-25.3505,19.868578,61.89827,78.48632,24.250366,10.055029,-24.808205,[9.916636 0.       0.      ],[-4.958318  8.588059  0.      ],[ 0.        0.       10.912215]
72,MQA_h_40fs,-554.553,-555.3284,14.457681,54.57085,56.77037,11.070351,4.91637,-16.82711,21.124857,56.802902,61.009434,11.192532,5.98165,-15.956879,[9.916636 0.       0.      ],[-4.958318  8.588059  0.      ],[ 0.        0.       10.912215]
72,MQA_h_40fs,-554.32135,-555.08044,-9.5055895,50.54294,68.51569,24.84928,20.30022,-7.0372806,-2.6661272,54.531933,73.72156,24.740717,21.189974,-6.448664,[9.916636 0.       0.      ],[-4.958318  8.588059  0.      ],[ 0.        0.       10.912215]
72,MQA_h_40fs,-554.0279,-554.7393,-20.214731,38.068542,52.27994,22.987492,18.85209,-8.48673,-12.242212,42.497128,55.877033,21.710035,19.399387,-8.319944,[9.916636 0.       0.      ],[-4.958318  8.588059  0.      ],[ 0.        0.       10.912215]
72,MQA_h_40fs,-554.7331,-555.4002,8.09913,47.561913,71.27079,14.092569,9.48171,-20.3485,14.31891,51.44555,75.42181,13.8393135,9.878745,-18.790497,[9.916636 0.       0.      ],[-4.958318  8.588059  0.      ],[ 0.        0.       10.912215]
72,MQA_h_40fs,-554.3313,-555.14667,20.545391,43.27575,70.41425,18.11926,1.7026,-15.266311,27.923239,46.84848,74.44137,17.130672,2.9599283,-13.844534,[9.916636 0.       0.      ],[-4.958318  8.588059  0.      ],[ 0.        0.       10.912215]
72,MQA_h_40fs,-553.74316,-554.61334,11.19666,60.711174,80.694336,-2.26376,7.10031,-15.778009,17.542603,61.919537,82.78545,-2.591167,8.247802,-14.7389555,[9.916636 0.       0.      ],[-4.958318  8.588059  0.      ],[ 0.        0.       10.912215]
72,MQA_h_40fs,-554.8922,-555.62994,-2.02289,40.75457,70.39329,5.7818103,5.3425303,-11.43873,3.7355351,44.404415,74.5307,4.9467072,6.4711037,-11.01736,[9.916636 0.       0.      ],[-4.958318  8.588059  0.      ],[ 0.        0.       10.912215]
72,MQA_h_40fs,-553.8814,-554.7059,29.039621,41.46191,87.28126,3.96304,21.96405,4.28551,34.07135,46.02431,90.68687,4.28632,21.897707,3.688745,[9.916636 0.       0.      ],[-4.958318  8.588059  0.      ],[ 0.        0.       10.912215]
72,MQA_h_40fs,-553.95087,-554.8199,31.45308,58.801247,60.15326,3.6442802,25.46335,-5.3098397,35.651333,61.106,64.153786,2.5952363,26.51449,-4.719318,[9.916636 0.       0.      ],[-4.958318  8.588059  0.      ],[ 0.        0.       10.912215]
72,MQA_h_40fs,-554.32684,-555.1714,25.3581,58.61077,70.96107,-10.50339,12.71525,-6.30693,30.73849,61.592316,74.84174,-10.222045,13.492021,-5.8635764,[9.916636 0.       0.      ],[-4.958318  8.588059  0.      ],[ 0.        0.       10.912215]
72,MQA_h_40fs,-554.3334,-555.15717,-1.5307901,48.87828,71.72534,6.63451,4.78091,9.18908,5.3904204,53.52139,75.14592,6.996976,5.7361593,9.17403,[9.916636 0.       0.      ],[-4.958318  8.588059  0.      ],[ 0.        0.       10.912215]
72,MQA_h_40fs,-554.7896,-555.60126,6.1248603,51.56722,72.047806,9.14587,7.21554,5.6966,12.6075735,55.08575,74.75845,7.4670467,8.24961,5.48195,[9.916636 0.       0.      ],[-4.958318  8.588059  0.      ],[ 0.        0.       10.912215]
72,MQA_h_40fs,-553.5828,-554.4232,27.090849,55.92647,69.67328,10.74021,-2.10035,-7.62379,33.097458,60.036003,73.29713,10.344576,-0.37037772,-7.511887,[9.916636 0.       0.      ],[-4.958318  8.588059  0.      ],[ 0.        0.       10.912215]
72,MQA_h_40fs,-553.148,-553.994,-4.96105,61.67135,64.58583,4.4127703,17.34066,-14.80364,3.308071,66.97521,69.19461,4.4858847,18.930937,-14.650213,[9.916636 0.       0.      ],[-4.958318  8.588059  0.      ],[ 0.        0.       10.912215]
72,MQA_h_40fs,-554.57654,-555.4652,-25.316002,53.73357,77.45033,-1.3962101,4.80818,-3.5010102,-17.828884,56.73849,78.55891,-0.7313021,6.1325006,-3.5449276,[9.916636 0.       0.      ],[-4.958318  8.588059  0.      ],[ 0.        0.       10.912215]
72,MQA_h_40fs,-554.40643,-555.3205,16.56789,68.14542,80.711006,3.56392,4.36808,-5.53236,24.422827,72.31637,83.35345,3.2927759,5.8077345,-5.3196945,[9.916636 0.       0.      ],[-4.958318  8.588059  0.      ],[ 0.        0.       10.912215]
72,MQA_h_40fs,-554.53174,-555.3737,-4.61094,36.984512,55.24417,6.7094803,8.26468,-7.2198,2.0764275,40.239933,60.05152,6.453092,8.516946,-6.8107557,[9.916636 0.       0.      ],[-4.958318  8.588059  0.      ],[ 0.        0.       10.912215]
72,MQA_h_40fs,-554.7453,-555.4779,21.371069,51.65297,67.90519,21.12043,8.20922,-5.3283,28.150799,54.231224,72.27471,20.520018,8.867725,-4.537118,[9.916636 0.       0.      ],[-4.958318  8.588059  0.      ],[ 0.        0.       10.912215]
72,MQA_h_40fs,-553.6984,-554.6004,20.42972,68.97309,88.00979,18.73876,9.40333,-6.0824604,27.209486,70.94394,91.46425,18.580841,9.67678,-5.4644165,[9.916636 0.       0.      ],[-4.958318  8.588059  0.      ],[ 0.        0.       10.912215]
72,MQA_h_40fs,-554.3141,-555.1455,7.94449,22.74055,58.72306,0.79706,2.2674599,2.8640602,12.466252,26.133923,61.481483,0.552078,3.6433241,2.6945186,[9.916636 0.       0.      ],[-4.958318  8.588059  0.      ],[ 0.        0.       10.912215]
72,MQA_h_40fs,-554.6854,-555.45154,28.704891,31.14117,73.10603,-5.68572,13.45553,1.9262099,35.955273,34.86735,76.729935,-5.389762,14.426323,1.3535839,[9.916636 0.       0.      ],[-4.958318  8.588059  0.      ],[ 0.        0.       10.912215]
72,MQA_h_40fs,-553.8693,-554.65564,-1.06026,51.192863,59.61572,18.86975,5.2811503,-4.64709,5.100503,54.26334,64.36791,17.377855,6.052624,-4.3873644,[9.916636 0.       0.      ],[-4.958318  8.588059  0.      ],[ 0.        0.       10.912215]
72,MQA_h_40fs,-554.45325,-555.12146,27.9375,48.95065,83.67915,8.11786,16.97995,-28.01077,34.33089,52.458714,87.1459,7.766717,17.67886,-26.627592,[9.916636 0.       0.      ],[-4.958318  8.588059  0.      ],[ 0.        0.       10.912215]
72,MQA_h_40fs,-554.4872,-555.1227,8.98698,28.539421,52.18271,13.35623,14.63645,-21.17794,14.700977,31.655092,54.890694,12.959312,14.122639,-20.02194,[9.916636 0.       0.      ],[-4.958318  8.588059  0.      ],[ 0.        0.       10.912215]
72,MQA_h_40fs,-553.76636,-554.51074,27.69702,30.59404,91.791374,28.069582,1.5551001,-12.65222,34.096996,34.498894,94.30134,26.59512,2.870177,-11.688782,[9.916636 0.       0.      ],[-4.958318  8.588059  0.      ],[ 0.        0.       10.912215]
72,MQA_h_40fs,-554.48865,-555.2865,7.94464,26.29848,72.30695,10.84664,6.20054,-10.2124,13.414473,27.842958,75.94231,10.436366,6.640538,-9.361337,[9.916636 0.       0.      ],[-4.958318  8.588059  0.      ],[ 0.        0.       10.912215]
72,MQA_h_40fs,-554.2313,-555.0094,10.35299,46.38581,85.63581,2.07412,3.56326,-16.4592,14.947257,48.23644,88.07129,1.0957404,5.0109234,-15.6425495,[9.916636 0.       0.      ],[-4.958318  8.588059  0.      ],[ 0.        0.       10.912215]
72,MQA_h_40fs,-554.2902,-554.9862,1.44781,47.185753,67.69828,-0.73339,12.04121,-5.46928,9.011887,51.157894,71.72646,-0.28217757,12.290365,-5.026793,[9.916636 0.       0.      ],[-4.958318  8.588059  0.      ],[ 0.        0.       10.912215]
72,MQA_h_40fs,-554.38684,-555.1996,2.9931302,31.816189,82.65594,4.39688,18.53754,-0.56633,10.243874,35.841457,85.603455,3.4139917,18.232672,0.75418234,[9.916636 0.       0.      ],[-4.958318  8.588059  0.      ],[ 0.        0.       10.912215]
72,MQA_h_40fs,-553.8241,-554.595,2.73828,43.82956,75.78958,16.83639,7.6594505,-2.92316,9.700091,48.18725,80.77964,15.673196,8.444107,-1.6358751,[9.916636 0.       0.      ],[-4.958318  8.588059  0.      ],[ 0.        0.       10.912215]
72,MQA_h_40fs,-554.11694,-554.9323,-4.70694,44.54266,59.414944,19.12558,15.49958,11.4523,3.2303786,47.389774,63.30099,18.003016,15.49308,11.928473,[9.916636 0.       0.      ],[-4.958318  8.588059  0.      ],[ 0.        0.       10.912215]
72,MQA_h_40fs,-553.7643,-554.53656,26.706482,41.563133,71.083954,-5.05249,8.65637,4.04613,32.4471,45.518337,74.65961,-5.635718,9.020956,4.674737,[9.916636 0.       0.      ],[-4.958318  8.588059  0.      ],[ 0.        0.       10.912215]
72,MQA_h_40fs,-554.1176,-554.9556,2.93284,37.706852,75.85426,-7.78376,8.97203,-5.90997,6.9257097,40.376205,78.08674,-7.937991,10.014626,-4.893577,[9.916636 0.       0.      ],[-4.958318  8.588059  0.      ],[ 0.        0.       10.912215]
72,MQA_h_40fs,-554.5213,-555.4302,6.3381405,40.65906,75.93029,3.89332,-1.39567,-11.4448595,12.718108,45.28952,78.88533,3.5027022,0.054791298,-10.677476,[9.916636 0.       0.      ],[-4.958318  8.588059  0.      ],[ 0.        0.       10.912215]
72,MQA_h_40fs,-554.6358,-555.4964,-4.28598,24.49257,83.04834,9.76681,-0.12817,-9.87586,2.1306808,29.36181,85.373665,9.19647,1.2484784,-8.886279,[9.916636 0.       0.      ],[-4.958318  8.588059  0.      ],[ 0.        0.       10.912215]
72,MQA_h_40fs,-554.6323,-555.5087,8.93934,43.78075,98.92549,19.76125,-4.17853,-6.66187,17.011593,49.563072,102.13513,19.10578,-1.5284103,-5.907333,[9.916636 0.       0.      ],[-4.958318  8.588059  0.      ],[ 0.        0.       10.912215]
72,MQA_h_40fs,-554.304,-555.27313,33.854748,62.59716,86.658516,14.0454,11.35626,-9.11394,40.56908,66.50543,91.2976,13.652908,11.9924965,-8.740941,[9.916636 0.       0.      ],[-4.958318  8.588059  0.      ],[ 0.        0.       10.912215]
72,MQA_h_40fs,-553.274,-554.10004,-14.11366,11.78116,46.544083,0.34394,6.5072303,-8.86037,-7.6534243,15.039003,49.80213,0.110211484,7.270688,-8.282615,[9.916636 0.       0.      ],[-4.958318  8.588059  0.      ],[ 0.        0.       10.912215]
72,MQA_h_40fs,-554.18396,-555.06287,34.91426,74.62182,98.62598,11.804111,15.71924,-8.32399,41.06969,78.95658,102.84076,10.157914,16.374392,-6.9132414,[9.916636 0.       0.      ],[-4.958318  8.588059  0.      ],[ 0.        0.       10.912215]
72,MQA_h_40fs,-554.7767,-555.6385,-1.04517,30.85555,60.85027,2.3677502,9.280311,3.4492803,5.368756,34.282944,63.31245,3.1548996,9.667925,3.5386608,[9.916636 0.       0.      ],[-4.958318  8.588059  0.      ],[ 0.        0.       10.912215]
72,MQA_h_40fs,-554.54285,-555.48444,6.1352897,52.02749,86.48705,8.74524,10.01671,-5.9634004,12.34249,54.970387,89.60604,9.096795,11.706712,-5.749837,[9.916636 0.       0.      ],[-4.958318  8.588059  0.      ],[ 0.        0.       10.912215]
72,MQA_h_40fs,-554.50305,-555.3349,11.52976,61.13069,85.68027,5.23484,11.8062,-12.62886,19.33068,64.54857,89.95162,4.772329,12.847093,-11.754968,[9.916636 0.       0.      ],[-4.958318  8.588059  0.      ],[ 0.        0.       10.912215]
72,MQA_h_40fs,-554.63715,-555.3946,1.51111,27.05253,64.78932,5.01776,12.83245,-3.86601,9.404333,31.836336,68.61879,4.4039454,13.718327,-3.9818285,[9.916636 0.       0.      ],[-4.958318  8.588059  0.      ],[ 0.        0.       10.912215]
72,MQA_h_40fs,-554.3916,-555.0641,-0.42814,15.02149,56.859524,12.21455,12.411059,-0.68689,6.9840794,19.877527,61.9116,10.35954,12.723189,0.14648645,[9.916636 0.       0.      ],[-4.958318  8.588059  0.      ],[ 0.        0.       10.912215]
72,MQA_h_40fs,-553.9344,-554.69226,18.25885,39.80754,74.94434,-6.1582503,21.476011,-1.87089,26.741127,43.792473,79.37478,-6.476352,21.167765,-0.8365537,[9.916636 0.       0.      ],[-4.958318  8.588059  0.      ],[ 0.        0.       10.912215]
72,MQA_h_40fs,-554.1783,-554.9307,3.5190198,37.03823,45.39875,4.17288,9.3991995,-9.45412,10.941367,41.362106,50.168526,3.697984,10.603209,-8.894614,[9.916636 0.       0.      ],[-4.958318  8.588059  0.      ],[ 0.        0.       10.912215]
72,MQA_h_40fs,-554.3306,-555.0964,2.11843,53.254463,60.682102,0.85591,5.92116,-5.29318,10.504781,58.362743,66.12115,0.26760662,6.9182587,-3.8607607,[9.916636 0.       0.      ],[-4.958318  8.588059  0.      ],[ 0.        0.       10.912215]
72,MQA_h_40fs,-554.714,-555.5769,14.01163,37.400238,72.56244,18.83197,13.732849,-9.11746,19.980629,41.424904,75.87553,18.218811,14.01662,-7.854512,[9.916636 0.       0.      ],[-4.958318  8.588059  0.      ],[ 0.        0.       10.912215]
72,MQA_h_40fs,-555.10156,-555.95105,10.71335,41.43685,76.9807,18.90903,11.72319,-5.2935004,17.027348,45.04136,79.33512,17.749119,13.109301,-4.945909,[9.916636 0.       0.      ],[-4.958318  8.588059  0.      ],[ 0.        0.       10.912215]
72,MQA_h_40fs,-553.97955,-554.82526,29.02561,58.879383,57.839203,7.2377996,3.62467,2.54446,34.61408,60.977802,60.540253,6.304507,4.6031604,2.6127515,[9.916636 0.       0.      ],[-4.958318  8.588059  0.      ],[ 0.        0.       10.912215]
72,MQA_h_40fs,-553.75964,-554.6603,26.093832,78.96771,71.29108,1.6283001,12.9394,-2.19082,31.305353,80.83184,73.88645,1.6489748,12.886298,-1.6775706,[9.916636 0.       0.      ],[-4.958318  8.588059  0.      ],[ 0.        0.       10.912215]
72,MQA_h_40fs,-554.3806,-555.2466,9.6467705,71.87271,83.12882,2.05109,18.92116,7.39597,14.288235,74.47984,85.35137,2.0593762,19.647879,7.781893,[9.916636 0.       0.      ],[-4.958318  8.588059  0.      ],[ 0.        0.       10.912215]
72,MQA_h_40fs,-554.20935,-554.9399,-3.73082,25.628752,62.923122,8.65957,22.74357,-6.59102,1.963153,29.120626,66.40672,8.596602,23.896696,-5.8769917,[9.916636 0.       0.      ],[-4.958318  8.588059  0.      ],[ 0.        0.       10.912215]
72,MQA_h_40fs,-554.2617,-555.1428,45.42152,62.062084,97.24428,6.30374,8.711841,-10.50088,51.978996,64.67321,100.76071,5.5706015,10.040569,-10.145486,[9.916636 0.       0.      ],[-4.958318  8.588059  0.      ],[ 0.        0.       10.912215]
72,MQA_h_40fs,-554.4051,-555.16833,-8.23574,37.180553,53.206493,17.84514,12.75951,-6.03324,0.30192286,41.29616,58.452988,16.684929,13.692938,-5.7961006,[9.916636 0.       0.      ],[-4.958318  8.588059  0.      ],[ 0.        0.       10.912215]
72,MQA_h_40fs,-553.8052,-554.5987,-15.40141,34.2995,58.8904,7.4169703,6.39356,-0.37285,-8.840633,36.898346,64.44466,6.589243,6.9847374,0.24235247,[9.916636 0.       0.      ],[-4.958318  8.588059  0.      ],[ 0.        0.       10.912215]
72,MQA_h_40fs,-554.4874,-555.2926,21.48971,53.18005,67.29217,7.82981,15.49675,-0.41049,28.565119,56.91833,72.244934,6.9841437,15.964173,-0.2267827,[9.916636 0.       0.      ],[-4.958318  8.588059  0.      ],[ 0.        0.       10.912215]
72,MQA_h_40fs,-555.0025,-555.7772,3.9175599,30.73377,55.36059,2.47439,7.58203,-17.21013,11.44458,35.255333,58.951385,1.9503949,8.686228,-16.904575,[9.916636 0.       0.      ],[-4.958318  8.588059  0.      ],[ 0.        0.       10.912215]
72,MQA_h_40fs,-553.8016,-554.5929,10.89656,41.39329,76.51454,19.33122,-1.54316,-18.947802,18.638985,46.901546,79.19214,19.182764,-1.0854858,-17.82621,[9.916636 0.       0.      ],[-4.958318  8.588059  0.      ],[ 0.        0.       10.912215]
72,MQA_h_40fs,-554.051,-554.93964,17.03037,44.17064,80.08314,26.59645,0.34097,-13.96627,22.18745,48.14828,83.253395,24.735891,2.0371509,-13.442132,[9.916636 0.       0.      ],[-4.958318  8.588059  0.      ],[ 0.        0.       10.912215]
72,MQA_h_40fs,-555.1508,-555.9455,12.3479805,47.48826,80.30328,7.9181,7.10549,-16.21162,18.223415,51.1315,83.108765,7.716232,8.407103,-15.517438,[9.916636 0.       0.      ],[-4.958318  8.588059  0.      ],[ 0.        0.       10.912215]
72,MQA_h_40fs,-553.9464,-554.8167,18.4718,67.332085,98.62809,13.86202,24.654999,-19.83903,26.056492,70.80859,101.86214,13.119007,25.886717,-18.745373,[9.916636 0.       0.      ],[-4.958318  8.588059  0.      ],[ 0.        0.       10.912215]
72,MQA_h_40fs,-554.16956,-555.0119,15.046321,26.97401,93.15881,12.0400505,17.505121,-22.74968,19.61302,29.671686,95.72495,11.140028,17.908983,-21.127266,[9.916636 0.       0.      ],[-4.958318  8.588059  0.      ],[ 0.        0.       10.912215]
72,MQA_h_40fs,-554.6427,-555.51373,16.06942,49.43315,80.547585,24.213999,9.239771,-2.50836,21.71627,52.415,84.02205,23.922543,10.03606,-2.266674,[9.916636 0.       0.      ],[-4.958318  8.588059  0.      ],[ 0.        0.       10.912215]
72,MQA_h_40fs,-554.22986,-554.9563,-17.12254,33.836502,56.345062,3.48236,18.49271,-3.4233701,-10.184667,37.277447,61.46496,4.189124,19.439375,-3.7387617,[9.916636 0.       0.      ],[-4.958318  8.588059  0.      ],[ 0.        0.       10.912215]
72,MQA_h_40fs,-554.1715,-554.9034,31.962559,75.51793,71.90847,7.37181,19.59565,-10.10868,39.155655,78.68746,78.00279,6.8935533,20.659603,-10.042227,[9.916636 0.       0.      ],[-4.958318  8.588059  0.      ],[ 0.        0.       10.912215]
72,MQA_h_40fs,-554.66504,-555.4945,-10.9446,46.88243,77.64929,8.93987,3.82651,5.55347,-3.296276,50.127457,81.16789,8.908669,4.0090556,4.903523,[9.916636 0.       0.      ],[-4.958318  8.588059  0.      ],[ 0.        0.       10.912215]
72,MQA_h_40fs,-553.8484,-554.75757,-5.8899503,30.459929,93.74217,2.9569001,11.04086,-8.6024,0.7957561,33.373882,96.17499,2.107219,10.4997425,-7.9486666,[9.916636 0.       0.      ],[-4.958318  8.588059  0.      ],[ 0.        0.       10.912215]
72,MQA_h_40fs,-553.988,-554.8277,10.80799,40.416573,56.89565,13.90991,13.93807,-10.49434,17.55655,44.853966,60.310097,13.642177,14.372929,-8.864291,[9.916636 0.       0.      ],[-4.958318  8.588059  0.      ],[ 0.        0.       10.912215]
72,MQA_h_40fs,-554.51733,-555.3309,-15.795881,57.837032,74.63333,1.4954001,7.62726,-14.88201,-8.512559,61.963898,78.46461,1.0716103,8.390232,-13.618536,[9.916636 0.       0.      ],[-4.958318  8.588059  0.      ],[ 0.        0.       10.912215]
72,MQA_h_40fs,-554.3493,-555.1128,8.82471,35.37014,94.53939,7.1112103,6.01827,-12.1123905,13.614597,38.073685,97.88685,6.8574166,7.4864826,-11.092005,[9.916636 0.       0.      ],[-4.958318  8.588059  0.      ],[ 0.        0.       10.912215]
72,MQA_h_40fs,-553.87744,-554.68726,2.99493,40.77371,90.61599,6.17024,11.21907,0.4592,11.07018,43.4272,93.902016,5.417398,12.723382,1.0537475,[9.916636 0.       0.      ],[-4.958318  8.588059  0.      ],[ 0.        0.       10.912215]
72,MQA_h_40fs,-553.6981,-554.517,6.50523,39.05983,49.19609,11.14665,18.28617,-4.41437,13.914315,42.620716,54.266518,10.102831,19.440807,-4.3050084,[9.916636 0.       0.      ],[-4.958318  8.588059  0.      ],[ 0.        0.       10.912215]
72,MQA_h_40fs,-554.3942,-555.1729,11.34237,36.55449,75.308395,10.747781,24.3385,-3.35348,18.334692,41.259026,79.18022,9.775161,24.447964,-2.518759,[9.916636 0.       0.      ],[-4.958318  8.588059  0.      ],[ 0.        0.       10.912215]
72,MQA_h_40fs,-554.4182,-555.1931,16.200232,65.44571,68.385956,5.83268,11.3008795,-14.318069,22.157429,68.75753,72.49013,4.789216,12.341571,-13.519516,[9.916636 0.       0.      ],[-4.958318  8.588059  0.      ],[ 0.        0.       10.912215]
72,MQA_h_40fs,-554.4672,-555.2604,2.1269002,55.091465,69.79219,-2.90603,13.15859,-5.5476203,9.98214,59.552105,73.863525,-2.5384948,13.860597,-5.9168854,[9.916636 0.       0.      ],[-4.958318  8.588059  0.      ],[ 0.        0.       10.912215]
72,MQA_h_40fs,-554.29254,-555.1257,-12.3585,33.670483,66.71969,11.871059,13.05009,-3.44784,-7.048823,36.21646,69.25207,11.778654,13.742344,-3.7543428,[9.916636 0.       0.      ],[-4.958318  8.588059  0.      ],[ 0.        0.       10.912215]
72,MQA_h_40fs,-554.07935,-554.9917,25.02198,77.12548,90.33581,12.39343,23.81942,-11.01352,30.421957,78.86522,92.73948,10.676905,23.372314,-11.660369,[9.916636 0.       0.      ],[-4.958318  8.588059  0.      ],[ 0.        0.       10.912215]
72,MQA_h_40fs,-554.42737,-555.2265,12.75361,51.02979,53.75251,10.478511,24.442091,0.5111,19.91834,54.889057,59.285137,9.612381,24.638954,0.5860544,[9.916636 0.       0.      ],[-4.958318  8.588059  0.      ],[ 0.        0.       10.912215]
72,MQA_h_40fs,-553.90936,-554.7961,27.50735,47.68788,89.32118,7.5378,32.59706,-10.07235,33.086067,52.23258,92.0508,7.2699013,32.126923,-9.185905,[9.916636 0.       0.      ],[-4.958318  8.588059  0.      ],[ 0.        0.       10.912215]
72,MQA_h_40fs,-553.7175,-554.5788,1.08713,33.87218,68.05531,4.89536,23.34192,-2.7000399,8.275932,37.24168,72.37044,4.37006,23.889034,-2.3773673,[9.916636 0.       0.      ],[-4.958318  8.588059  0.      ],[ 0.        0.       10.912215]
72,MQA_h_40fs,-554.4206,-555.30475,-5.06214,45.17836,75.219124,20.93496,16.85217,0.45902002,1.6969473,47.598198,78.94438,20.778236,17.514374,0.11828749,[9.916636 0.       0.      ],[-4.958318  8.588059  0.      ],[ 0.        0.       10.912215]
72,MQA_h_40fs,-553.8384,-554.6218,2.5659401,42.85864,71.288246,2.1600502,7.9114704,-10.75656,10.619739,46.265945,73.5149,1.9402024,8.899567,-9.315369,[9.916636 0.       0.      ],[-4.958318  8.588059  0.      ],[ 0.        0.       10.912215]
72,MQA_h_40fs,-554.24884,-555.1172,12.40512,39.85493,68.27766,-0.48231,10.46444,-15.18758,19.350437,44.07098,72.12357,-0.82568926,11.35392,-14.254372,[9.916636 0.       0.      ],[-4.958318  8.588059  0.      ],[ 0.        0.       10.912215]
72,MQA_h_40fs,-555.00934,-555.8947,-11.36629,39.67455,69.17312,15.07052,8.8879795,-10.79232,-5.1494293,43.27981,71.92842,14.29438,9.734947,-9.822022,[9.916636 0.       0.      ],[-4.958318  8.588059  0.      ],[ 0.        0.       10.912215]
72,MQA_h_40fs,-553.8166,-554.69434,12.7752905,68.20693,100.556,11.666901,13.93953,-7.93429,18.80485,73.19274,102.99349,10.782632,14.487152,-7.965906,[9.916636 0.       0.      ],[-4.958318  8.588059  0.      ],[ 0.        0.       10.912215]
72,MQA_h_40fs,-554.2185,-555.11725,-7.3520503,53.882217,66.128265,25.97193,15.39047,-8.01208,0.08274287,56.672974,71.147835,24.824682,15.779526,-7.8330383,[9.916636 0.       0.      ],[-4.958318  8.588059  0.      ],[ 0.        0.       10.912215]
72,MQA_h_40fs,-554.029,-554.834,30.7704,64.64627,93.40863,14.940201,12.78366,-14.201671,36.88286,69.697205,97.95243,13.818964,13.706564,-14.251854,[9.916636 0.       0.      ],[-4.958318  8.588059  0.      ],[ 0.        0.       10.912215]
72,MQA_h_40fs,-553.8691,-554.77094,13.744781,31.952251,61.92198,17.93563,11.09439,-8.69209,18.240728,34.73284,65.43618,17.582073,11.699083,-8.174768,[9.916636 0.       0.      ],[-4.958318  8.588059  0.      ],[ 0.        0.       10.912215]
72,MQA_h_40fs,-554.9093,-555.7733,40.24417,57.00494,82.95005,-1.72333,8.556709,-16.33018,43.593678,60.381744,85.93692,-1.7162725,9.710104,-16.214056,[9.916636 0.       0.      ],[-4.958318  8.588059  0.      ],[ 0.        0.       10.912215]
72,MQA_h_40fs,-553.9364,-554.75977,16.49689,33.11354,51.69624,4.27672,6.13198,2.08659,22.923895,37.167442,56.07483,4.143893,8.372472,2.9210012,[9.916636 0.       0.      ],[-4.958318  8.588059  0.      ],[ 0.        0.       10.912215]
72,MQA_h_40fs,-554.04736,-554.90735,45.64455,56.46195,79.57655,6.55333,20.95231,-8.00073,51.128277,59.2095,83.13347,6.2126603,21.804201,-6.990637,[9.916636 0.       0.      ],[-4.958318  8.588059  0.      ],[ 0.        0.       10.912215]
72,MQA_h_40fs,-554.5243,-555.32837,20.530361,38.3455,66.10064,9.66564,14.4108,-8.55153,24.988506,39.39659,70.19816,8.948624,15.265785,-7.9575715,[9.916636 0.       0.      ],[-4.958318  8.588059  0.      ],[ 0.        0.       10.912215]
72,MQA_h_40fs,-554.3553,-555.0387,0.68319,30.756021,84.13829,12.74673,17.638311,-0.28143,6.465094,35.445885,87.44139,12.73704,17.249237,-0.03160156,[9.916636 0.       0.      ],[-4.958318  8.588059  0.      ],[ 0.        0.       10.912215]
72,MQA_h_40fs,-554.41534,-555.11566,22.08087,36.08313,60.988937,0.55448,13.39248,-10.366,29.7801,39.92852,64.547264,-0.1989871,13.301241,-8.055981,[9.916636 0.       0.      ],[-4.958318  8.588059  0.      ],[ 0.        0.       10.912215]
72,MQA_h_40fs,-554.5884,-555.324,8.014541,41.14008,50.251274,3.7821002,2.98411,-13.63404,13.573384,44.230915,54.29286,2.898608,4.045011,-13.153743,[9.916636 0.       0.      ],[-4.958318  8.588059  0.      ],[ 0.        0.       10.912215]
72,MQA_h_40fs,-553.4142,-554.1603,5.13871,60.69089,64.41291,-12.72167,-8.30715,-3.4622998,12.050639,63.513412,69.48279,-12.467574,-7.3900437,-2.83669,[9.916636 0.       0.      ],[-4.958318  8.588059  0.      ],[ 0.        0.       10.912215]
72,MQA_h_40fs,-554.46027,-555.13635,5.82582,49.7101,70.87852,-5.284,4.6714997,-3.91986,14.096715,53.00226,74.43575,-5.2783656,5.728073,-3.9818788,[9.916636 0.       0.      ],[-4.958318  8.588059  0.      ],[ 0.        0.       10.912215]
72,MQA_h_40fs,-554.48,-555.2852,-17.334251,42.97393,60.991028,-0.5679,11.626141,3.29085,-9.663968,46.267895,65.3571,-1.4806216,12.793045,2.9623756,[9.916636 0.       0.      ],[-4.958318  8.588059  0.      ],[ 0.        0.       10.912215]
72,MQA_h_40fs,-554.2315,-555.075,-10.359591,41.08572,75.85314,23.13374,7.92346,-6.2357,-2.7706285,44.265198,80.263725,21.88903,9.343825,-5.5364666,[9.916636 0.       0.      ],[-4.958318  8.588059  0.      ],[ 0.        0.       10.912215]
72,MQA_h_40fs,-554.7205,-555.60406,24.18191,67.47195,91.81425,9.08288,0.74487,-5.44286,30.247854,70.812126,95.71908,8.644019,1.5818948,-4.65162,[9.916636 0.       0.      ],[-4.958318  8.588059  0.      ],[ 0.        0.       10.912215]
72,MQA_h_40fs,-554.07117,-554.91254,0.54844004,26.62009,45.81597,18.57986,24.36664,-16.92105,5.619845,29.971893,50.248528,18.144066,25.374914,-16.902721,[9.916636 0.       0.      ],[-4.958318  8.588059  0.      ],[ 0.        0.       10.912215]
72,MQA_h_40fs,-553.2693,-554.1314,14.335431,76.44051,91.01389,-0.20633,30.38331,-10.898721,21.593128,78.938194,93.62513,-0.72333145,30.327179,-10.683895,[9.916636 0.       0.      ],[-4.958318  8.588059  0.      ],[ 0.        0.       10.912215]
72,MQA_h_40fs,-554.8768,-555.7379,21.30577,64.17533,91.592186,8.73631,8.58429,-4.0297704,28.052887,67.160515,94.72029,8.295226,9.644938,-4.0042596,[9.916636 0.       0.      ],[-4.958318  8.588059  0.      ],[ 0.        0.       10.912215]
72,MQA_h_40fs,-554.541,-555.3103,-7.6133904,20.91274,56.72767,13.08281,9.448851,-4.00556,-2.1488483,23.834906,60.607166,12.599446,10.25194,-3.413031,[9.916636 0.       0.      ],[-4.958318  8.588059  0.      ],[ 0.        0.       10.912215]
72,MQA_h_40fs,-553.7599,-554.545,26.16748,54.075832,81.46382,11.11549,4.02629,1.1202,33.210804,58.044834,86.03157,10.221925,4.90801,0.64470994,[9.916636 0.       0.      ],[-4.958318  8.588059  0.      ],[ 0.        0.       10.912215]
72,MQA_h_40fs,-554.3638,-555.1511,1.07156,31.79009,105.12331,-5.6362,4.48267,-1.38925,9.011504,36.69127,107.19633,-5.664709,5.5897546,-1.0402064,[9.916636 0.       0.      ],[-4.958318  8.588059  0.      ],[ 0.        0.       10.912215]
72,MQA_h_40fs,-554.1746,-554.8971,-6.21628,26.427391,45.43401,5.02738,12.25523,3.13768,0.32392552,31.144436,50.26061,3.5757158,13.565616,3.2443511,[9.916636 0.       0.      ],[-4.958318  8.588059  0.      ],[ 0.        0.       10.912215]
72,MQA_h_40fs,-553.92786,-554.699,-3.71676,51.20243,70.13212,-0.28014,8.70595,-10.86857,3.960399,55.54819,73.98039,-0.77840114,8.48098,-9.439625,[9.916636 0.       0.      ],[-4.958318  8.588059  0.      ],[ 0.        0.       10.912215]
72,MQA_h_40fs,-554.1375,-554.90546,41.68351,46.44633,85.35878,-3.24342,8.12248,-18.10249,46.209324,48.967777,87.30002,-2.9410524,8.65028,-16.596388,[9.916636 0.       0.      ],[-4.958318  8.588059  0.      ],[ 0.        0.       10.912215]
72,MQA_h_40fs,-554.06366,-554.91895,-4.45169,30.58923,56.45609,14.88422,1.53067,-12.14277,1.9677322,35.10257,60.007904,14.563685,2.1407042,-11.082611,[9.916636 0.       0.      ],[-4.958318  8.588059  0.      ],[ 0.        0.       10.912215]
72,MQA_h_40fs,-554.45306,-555.17017,6.33875,49.40644,90.54634,20.7781,7.43264,-13.9718895,13.150547,52.506516,93.57143,20.743427,8.128254,-12.863322,[9.916636 0.       0.      ],[-4.958318  8.588059  0.      ],[ 0.        0.       10.912215]
72,MQA_h_40fs,-554.3544,-555.1508,2.63747,20.37543,55.78226,27.196991,8.20626,-10.7039,8.188481,23.911293,60.68723,26.553648,9.255841,-9.412933,[9.916636 0.       0.      ],[-4.958318  8.588059  0.      ],[ 0.        0.       10.912215]
72,MQA_h_40fs,-554.73785,-555.56854,22.7676,54.53936,59.92647,1.10859,10.85711,-4.82228,27.773409,57.737835,64.641594,0.2203687,12.154008,-4.80736,[9.916636 0.       0.      ],[-4.958318  8.588059  0.      ],[ 0.        0.       10.912215]
72,MQA_h_40fs,-555.18195,-555.97906,20.29583,44.82267,68.4491,5.1219897,6.6059003,-4.77628,26.419853,48.36239,72.14809,5.3574686,8.116107,-4.7284856,[9.916636 0.       0.      ],[-4.958318  8.588059  0.      ],[ 0.        0.       10.912215]
72,MQA_h_40fs,-554.5052,-555.2574,13.03244,41.76586,66.36498,11.55713,23.473831,-9.14753,20.230442,47.437347,70.84406,11.223157,24.089195,-9.220488,[9.916636 0.       0.      ],[-4.958318  8.588059  0.      ],[ 0.        0.       10.912215]
72,MQA_h_40fs,-553.8667,-554.80725,4.07683,63.687653,84.341576,20.40527,-0.01318,-21.01481,10.360514,66.32587,88.36049,18.8886,0.7790343,-20.813066,[9.916636 0.       0.      ],[-4.958318  8.588059  0.      ],[ 0.        0.       10.912215]
